16
Lattice="4.920000223338258 0.0 0.0 2.460000111669129 4.260843193416515 0.0 0.0 0.0 43.60000385917652" Properties=species:S:1:pos:R:3 energy=-4067.479860701228 pbc="T T T"
C        0.00000000       0.00000000      20.00000115
C        1.23000006       0.71014102      20.00000115
C        0.00000000       0.00000000      23.60000123
C        1.23000006       0.71014102      23.60000123
C        1.23000006       2.13042258      20.00000115
C        2.46000011       2.84056360      20.00000115
C        1.23000006       2.13042258      23.60000123
C        2.46000011       2.84056360      23.60000123
C        2.46000011       0.00000000      20.00000115
C        3.69000017       0.71014102      20.00000115
C        2.46000011       0.00000000      23.60000123
C        3.69000017       0.71014102      23.60000123
C        3.69000017       2.13042258      20.00000115
C        4.92000022       2.84056360      20.00000115
C        3.69000017       2.13042258      23.60000123
C        4.92000022       2.84056360      23.60000123
16
Lattice="4.920000223338258 0.0 0.0 2.460000111669129 4.260843193416515 0.0 0.0 0.0 43.60000385917652" Properties=species:S:1:pos:R:3 energy=-4067.4113425727114 pbc="T T T"
C       -0.00841784       0.00679141      20.00493790
C        1.23706050       0.70960558      19.99949086
C       -0.00170919       0.00838105      23.60974633
C        1.22428891       0.70607096      23.59803456
C        1.23731475       2.14756091      19.99819354
C        2.45591186       2.84483067      20.00752765
C        1.22187661       2.12437098      23.59574348
C        2.44522904       2.84468177      23.59670945
C        2.47380257      -0.00608903      20.00882763
C        3.69332546       0.70565826      19.99100636
C        2.47318092       0.00675264      23.60136674
C        3.69512676       0.70083639      23.60329379
C        3.68161252       2.11579147      19.99920191
C        4.92841857       2.83640253      19.98532665
C        3.68684469       2.13489081      23.60012996
C        4.91613386       2.83797021      23.60046318
16
Lattice="4.920000223338258 0.0 0.0 2.460000111669129 4.260843193416515 0.0 0.0 0.0 43.60000385917652" Properties=species:S:1:pos:R:3 energy=-4067.2219359665746 pbc="T T T"
C       -0.01601233       0.01339656      20.00980371
C        1.24406491       0.70925579      19.99904686
C       -0.00335822       0.01618317      23.61938190
C        1.21907073       0.70214245      23.59611357
C        1.24442817       2.16375346      19.99636194
C        2.45223542       2.84916191      20.01501025
C        1.21380722       2.11845901      23.59150696
C        2.43090184       2.84863332      23.59347550
C        2.48693770      -0.01213623      20.01747561
C        3.69646644       0.70131284      19.98216181
C        2.48568746       0.01304258      23.60271581
C        3.70010113       0.69236961      23.60658972
C        3.67363679       2.10187645      19.99834365
C        4.93630074       2.83222897      19.97084411
C        3.68345076       2.13920234      23.60025080
C        4.91228123       2.83562436      23.60091781
16
Lattice="4.920000223338258 0.0 0.0 2.460000111669129 4.260843193416515 0.0 0.0 0.0 43.60000385917652" Properties=species:S:1:pos:R:3 energy=-4066.953842201715 pbc="T T T"
C       -0.02198797       0.01962208      20.01452953
C        1.25095150       0.70922938      19.99872918
C       -0.00486093       0.02285615      23.62880480
C        1.21478878       0.69849273      23.59428021
C        1.25113697       2.17813605      19.99447783
C        2.44938133       2.85362177      20.02240226
C        1.20586119       2.11283144      23.58731337
C        2.41741569       2.85225714      23.59035853
C        2.49878758      -0.01810546      20.02576670
C        3.69922237       0.69723329      19.97359997
C        2.49687871       0.01843530      23.60403206
C        3.70475895       0.68551597      23.60989009
C        3.66643097       2.08935074      19.99736361
C        4.94316736       2.82805889      19.95673707
C        3.67962174       2.14323160      23.60035658
C        4.90844575       2.83373951      23.60135822
16
Lattice="4.920000223338258 0.0 0.0 2.460000111669129 4.260843193416515 0.0 0.0 0.0 43.60000385917652" Properties=species:S:1:pos:R:3 energy=-4066.6654209888793 pbc="T T T"
C       -0.02564113       0.02528388      20.01905576
C        1.25766046       0.70961992      19.99859524
C       -0.00612236       0.02792052      23.63791983
C        1.21181251       0.69524241      23.59257313
C        1.25724418       2.18996913      19.99251531
C        2.44773101       2.85826307      20.02966034
C        1.19811494       2.10763251      23.58318580
C        2.40511233       2.85540574      23.58741794
C        2.50881468      -0.02396445      20.03353272
C        3.70140678       0.69353368      19.96544009
C        2.50618270       0.02255583      23.60530038
C        3.70893640       0.68093708      23.61319426
C        3.66028729       2.07880732      19.99620503
C        4.94862446       2.82393039      19.94318360
C        3.67520858       2.14688522      23.60044201
C        4.90462715       2.83248434      23.60177857
16
Lattice="4.920000223338258 0.0 0.0 2.460000111669129 4.260843193416515 0.0 0.0 0.0 43.60000385917652" Properties=species:S:1:pos:R:3 energy=-4066.4169232299955 pbc="T T T"
C       -0.02641841       0.03022980      20.02333071
C        1.26413478       0.71048202      19.99869646
C       -0.00705527       0.03100733      23.64663835
C        1.21041204       0.69248202      23.59102705
C        1.26258003       2.19867361      19.99045101
C        2.44759686       2.86310987      20.03674239
C        1.19064926       2.10300113      23.57914785
C        2.39426833       2.85794843      23.58471041
C        2.51659036      -0.02967787      20.04061754
C        3.70287557       0.69030348      19.95778802
C        2.51313898       0.02511956      23.60650649
C        3.71247591       0.67913494      23.61649912
C        3.65543397       2.07072662      19.99481794
C        4.95237996       2.81989072      19.93035091
C        3.67011688       2.15010024      23.60050305
C        4.90082073       2.83197469      23.60217270
16
Lattice="4.920000223338258 0.0 0.0 2.460000111669129 4.260843193416515 0.0 0.0 0.0 43.60000385917652" Properties=species:S:1:pos:R:3 energy=-4066.204343545417 pbc="T T T"
C       -0.01817126       0.03764678      20.03094619
C        1.27617439       0.71367804      19.99977004
C       -0.00772059       0.03050583      23.66255837
C        1.21280599       0.68858372      23.58854334
C        1.27051695       2.20534132      19.98594933
C        2.45256832       2.87327813      20.05020442
C        1.17690273       2.09594118      23.57143869
C        2.37769467       2.86079228      23.58019656
C        2.52433523      -0.04046122      20.05219266
C        3.70345526       0.68543464      19.94438241
C        2.51893800       0.02502956      23.60868397
C        3.71707161       0.68486376      23.62309033
C        3.65022312       2.06317179      19.99119938
C        4.95418860       2.81223798      19.90744427
C        3.65782576       2.15509508      23.60054461
C        4.89319122       2.83336772      23.60285542
16
Lattice="4.920000223338258 0.0 0.0 2.460000111669129 4.260843193416515 0.0 0.0 0.0 43.60000385917652" Properties=species:S:1:pos:R:3 energy=-4066.2570226076696 pbc="T T T"
C       -0.00915609       0.04012339      20.03420117
C        1.28165351       0.71597207      20.00080099
C       -0.00745197       0.02696190      23.66960642
C        1.21650303       0.68740741      23.58766513
C        1.27307552       2.20315109      19.98349837
C        2.45767626       2.87838338      20.05648636
C        1.17079928       2.09371979      23.56781855
C        2.37213506       2.86094152      23.57847436
C        2.52414725      -0.04538047      20.05644771
C        3.70268224       0.68379401      19.93880308
C        2.51768429       0.02243241      23.60963810
C        3.71789678       0.69233497      23.62636468
C        3.65004759       2.06391409      19.98891086
C        4.95223596       2.80866645      19.89762828
C        3.65074520       2.15687337      23.60052665
C        4.88932610       2.83521121      23.60312930
16
Lattice="4.920000223338258 0.0 0.0 2.460000111669129 4.260843193416515 0.0 0.0 0.0 43.60000385917652" Properties=species:S:1:pos:R:3 energy=-4066.382258103862 pbc="T T T"
C        0.00272198       0.04188435      20.03703074
C        1.28672896       0.71866130      20.00218185
C       -0.00686414       0.02152873      23.67595025
C        1.22158782       0.68665444      23.58706777
C        1.27477841       2.19752377      19.98092244
C        2.46430468       2.88326802      20.06239168
C        1.16532413       2.09246766      23.56439039
C        2.36837449       2.86019015      23.57715118
C        2.52139995      -0.04985267      20.05955294
C        3.70141623       0.68263053      19.93408376
C        2.51388249       0.01838728      23.61049673
C        3.71764146       0.70246188      23.62961690
C        3.65152999       2.06754465      19.98628049
C        4.94856180       2.80526435      19.88904786
C        3.64321547       2.15820657      23.60048757
C        4.88539628       2.83768559      23.60334745
16
Lattice="4.920000223338258 0.0 0.0 2.460000111669129 4.260843193416515 0.0 0.0 0.0 43.60000385917652" Properties=species:S:1:pos:R:3 energy=-4066.5333614218416 pbc="T T T"
C        0.01691272       0.04305639      20.03939374
C        1.29138111       0.72166132      20.00391270
C       -0.00607320       0.01461769      23.68152332
C        1.22771044       0.68622370      23.58677851
C        1.27575503       2.18888148      19.97824213
C        2.47214275       2.88771127      20.06785278
C        1.16055444       2.09221796      23.56118221
C        2.36630428       2.85854198      23.57624749
C        2.51638334      -0.05376195      20.06143573
C        3.69989140       0.68188419      19.93030239
C        2.50787831       0.01322386      23.61126037
C        3.71628514       0.71467932      23.63284124
C        3.65463394       2.07377776      19.98330429
C        4.94342962       2.80201865      19.88178863
C        3.63542671       2.15914695      23.60043337
C        4.88138396       2.84062603      23.60350109
16
Lattice="4.920000223338258 0.0 0.0 2.460000111669129 4.260843193416515 0.0 0.0 0.0 43.60000385917652" Properties=species:S:1:pos:R:3 energy=-4066.6613068997526 pbc="T T T"
C        0.03271754       0.04377286      20.04125383
C        1.29560204       0.72485812      20.00598113
C       -0.00522029       0.00674645      23.68626587
C        1.23443087       0.68600746      23.58682171
C        1.27616306       2.17780483      19.97548854
C        2.48081049       2.89148489      20.07279618
C        1.15655639       2.09296733      23.55822293
C        2.36574570       2.85603933      23.57577405
C        2.50951154      -0.05698903      20.06204426
C        3.69836564       0.68149226      19.92752801
C        2.50012240       0.00735298      23.61193337
C        3.71385150       0.72826384      23.63603147
C        3.65926541       2.08219384      19.97999013
C        4.93718989       2.79891905      19.87591590
C        3.62760761       2.15976835      23.60037156
C        4.87728021       2.84382404      23.60358106
16
Lattice="4.920000223338258 0.0 0.0 2.460000111669129 4.260843193416515 0.0 0.0 0.0 43.60000385917652" Properties=species:S:1:pos:R:3 energy=-4066.726960213776 pbc="T T T"
C        0.04934112       0.04414867      20.04258369
C        1.29939633       0.72810658      20.00836228
C       -0.00445221      -0.00150718      23.69012766
C        1.24124349       0.68590997      23.58721690
C        1.27616765       2.16499806      19.97270104
C        2.48989825       2.89437992      20.07714538
C        1.15338263       2.09467192      23.55554224
C        2.36645768       2.85276801      23.57573220
C        2.50129844      -0.05942266      20.06134921
C        3.69709335       0.68139896      19.92581532
C        2.49113175       0.00123111      23.61252379
C        3.71040392       0.74238490      23.63917996
C        3.66526540       2.09226202      19.97635933
C        4.93026782       2.79597269      19.87147219
C        3.62001615       2.16016279      23.60031072
C        4.87308824       2.84704084      23.60357808
16
Lattice="4.920000223338258 0.0 0.0 2.460000111669129 4.260843193416515 0.0 0.0 0.0 43.60000385917652" Properties=species:S:1:pos:R:3 energy=-4066.7097311900243 pbc="T T T"
C        0.06594517       0.04426117      20.04336878
C        1.30277918       0.73123218      20.01101989
C       -0.00390694      -0.00955456      23.69307057
C        1.24760706       0.68586328      23.58797672
C        1.27592592       2.15125179      19.96992471
C        2.49899955       2.89623007      20.08082414
C        1.15106735       2.09724659      23.55317037
C        2.36815039       2.84886092      23.57611476
C        2.49232990      -0.06097210      20.05934502
C        3.69630377       0.68156097      19.92519934
C        2.48144912      -0.00467834      23.61304292
C        3.70603995       0.75616046      23.64227682
C        3.67240394       2.10336657      19.97244803
C        4.92315034       2.79321945      19.86847467
C        3.61292700       2.16043355      23.60026011
C        4.86882830       2.85002458      23.60348315
16
Lattice="4.920000223338258 0.0 0.0 2.460000111669129 4.260843193416515 0.0 0.0 0.0 43.60000385917652" Properties=species:S:1:pos:R:3 energy=-4066.6114136029228 pbc="T T T"
C        0.08169873       0.04413766      20.04360971
C        1.30577199       0.73403628      20.01390749
C       -0.00370537      -0.01684239      23.69507038
C        1.25297802       0.68583732      23.58910539
C        1.27557895       2.13740322      19.96720733
C        2.50773537       2.89692754      20.08375941
C        1.14962087       2.10056751      23.55113782
C        2.37050309       2.84449903      23.57690751
C        2.48323320      -0.06157693      20.05605053
C        3.69618721       0.68194781      19.92569119
C        2.47160595      -0.00994260      23.61350495
C        3.70088420       0.76871620      23.64530929
C        3.68037772       2.11483801      19.96830765
C        4.91637144       2.79074306      19.86691405
C        3.60661702       2.16068383      23.60022933
C        4.86454160       2.85253105      23.60328797
16
Lattice="4.920000223338258 0.0 0.0 2.460000111669129 4.260843193416515 0.0 0.0 0.0 43.60000385917652" Properties=species:S:1:pos:R:3 energy=-4066.455247470918 pbc="T T T"
C        0.09582052       0.04375307      20.04332298
C        1.30839589       0.73630654      20.01697058
C       -0.00394830      -0.02289111      23.69611738
C        1.25684483       0.68584282      23.59059755
C        1.27524864       2.12429059      19.96459709
C        2.51577054       2.89642900      20.08588372
C        1.14902552       2.10447773      23.54947493
C        2.37318573       2.83990824      23.57809086
C        2.47464477      -0.06121369      20.05150895
C        3.69688885       0.68253946      19.92727587
C        2.46209175      -0.01419148      23.61392625
C        3.69507917       0.77924571      23.64826129
C        3.68881691       2.12598717      19.96400428
C        4.91049348       2.78867425      19.86675475
C        3.60134972       2.16100147      23.60022819
C        4.86029198       2.85434683      23.60298532
16
Lattice="4.920000223338258 0.0 0.0 2.460000111669129 4.260843193416515 0.0 0.0 0.0 43.60000385917652" Properties=species:S:1:pos:R:3 energy=-4066.280671341103 pbc="T T T"
C        0.10761635       0.04304038      20.04254000
C        1.31066388       0.73783373      20.02014828
C       -0.00471858      -0.02732220      23.69621632
C        1.25876222       0.68592669      23.59243813
C        1.27503824       2.11270278      19.96214123
C        2.52282336       2.89475264      20.08713651
C        1.14923251       2.10879565      23.54821155
C        2.37588300       2.83535040      23.57964160
C        2.46717742      -0.05989807      20.04578703
C        3.69850768       0.68332255      19.92991183
C        2.45332870      -0.01714120      23.61432475
C        3.68877567       0.78706438      23.65111272
C        3.69730556       2.13614228      19.95961634
C        4.90608047       2.78718352      19.86793724
C        3.59735837       2.16144133      23.60026699
C        4.85616515       2.85531172      23.60256951
16
Lattice="4.920000223338258 0.0 0.0 2.460000111669129 4.260843193416515 0.0 0.0 0.0 43.60000385917652" Properties=species:S:1:pos:R:3 energy=-4066.1345539649888 pbc="T T T"
C        0.11651436       0.04190939      20.04130506
C        1.31257256       0.73843424      20.02337503
C       -0.00608614      -0.02987479      23.69538551
C        1.25838322       0.68616187      23.59460252
C        1.27503479       2.10332823      19.95988621
C        2.52867004       2.89196800      20.08746494
C        1.15016033       2.11332521      23.54737634
C        2.37831997       2.83110838      23.58153422
C        2.46138855      -0.05768269      20.03897357
C        3.70109813       0.68428708      19.93353228
C        2.44564931      -0.01860937      23.61471887
C        3.68212489       0.79165328      23.65383885
C        3.70541695       2.14468882      19.95523090
C        4.90365955       2.78646282      19.87038217
C        3.59482753       2.16200853      23.60035683
C        4.85226597       2.85533760      23.60203669
16
Lattice="4.920000223338258 0.0 0.0 2.460000111669129 4.260843193416515 0.0 0.0 0.0 43.60000385917652" Properties=species:S:1:pos:R:3 energy=-4066.060071373243 pbc="T T T"
C        0.12209594       0.04026714      20.03967247
C        1.31409536       0.73797622      20.02658105
C       -0.00811360      -0.03041285      23.69365616
C        1.25548665       0.68663482      23.59705754
C        1.27531221       2.09670558      19.95787856
C        2.53314572       2.88818149      20.08682410
C        1.15169525       2.11786640      23.54699635
C        2.38028653       2.82746671      23.58374210
C        2.45775101      -0.05465064      20.03117729
C        3.70467266       0.68542479      19.93804738
C        2.43927709      -0.01852139      23.61512688
C        3.67527346       0.79269200      23.65641008
C        3.71276154       2.15111078      19.95093851
C        4.90367153       2.78669771      19.87399572
C        3.59387455       2.16264707      23.60051039
C        4.84871411       2.85442078      23.60138542
16
Lattice="4.920000223338258 0.0 0.0 2.460000111669129 4.260843193416515 0.0 0.0 0.0 43.41000329055164" Properties=species:S:1:pos:R:3 energy=-4067.5518469206177 pbc="T T T"
C        0.00000000       0.00000000      20.00000115
C        1.23000006       0.71014102      20.00000115
C        1.23000006       0.71014102      23.41000115
C        2.46000011       1.42028156      23.41000115
C        1.23000006       2.13042258      20.00000115
C        2.46000011       2.84056360      20.00000115
C        2.46000011       2.84056360      23.41000115
C        3.69000017       3.55070414      23.41000115
C        2.46000011       0.00000000      20.00000115
C        3.69000017       0.71014102      20.00000115
C        3.69000017       0.71014102      23.41000115
C        4.92000022       1.42028156      23.41000115
C        3.69000017       2.13042258      20.00000115
C        4.92000022       2.84056360      20.00000115
C        4.92000022       2.84056360      23.41000115
C        6.15000028       3.55070414      23.41000115
16
Lattice="4.920000223338258 0.0 0.0 2.460000111669129 4.260843193416515 0.0 0.0 0.0 43.41000329055164" Properties=species:S:1:pos:R:3 energy=-4067.506021181448 pbc="T T T"
C       -0.00652956       0.00075156      19.99095206
C        1.23464056       0.70528366      19.98723224
C        1.21997760       0.71025441      23.42366551
C        2.46275371       1.42597673      23.42752417
C        1.23478739       2.11836816      19.99874821
C        2.46482827       2.84184147      19.98730878
C        2.46830316       2.83020101      23.41497417
C        3.68335892       3.55485505      23.41237336
C        2.46024849      -0.00094571      20.00583655
C        3.68978430       0.72491207      19.99745161
C        3.69667805       0.70857992      23.41049050
C        4.91575479       1.40972614      23.41321736
C        3.69674614       2.13674781      20.00218111
C        4.92449251       2.85256072      19.99579869
C        4.90592126       2.83977465      23.40034194
C        6.14825440       3.54674558      23.41190374
16
Lattice="4.920000223338258 0.0 0.0 2.460000111669129 4.260843193416515 0.0 0.0 0.0 43.41000329055164" Properties=species:S:1:pos:R:3 energy=-4067.3783972060373 pbc="T T T"
C       -0.01283805       0.00159249      19.98188212
C        1.23894691       0.70040147      19.97460472
C        1.21045470       0.71047622      23.43727202
C        2.46539399       1.43108723      23.44492283
C        1.23954306       2.10688170      19.99738967
C        2.46941285       2.84303842      19.97474874
C        2.47604760       2.82033894      23.41997080
C        3.67688026       3.55884752      23.41474508
C        2.46073509      -0.00154651      20.01152504
C        3.68959421       0.73921252      19.99494989
C        3.70286725       0.70676072      23.41105583
C        4.91154726       1.39973922      23.41641024
C        3.70342401       2.14326806      20.00424937
C        4.92917910       2.86393924      19.99168107
C        4.89235258       2.83895131      23.39081989
C        6.14645916       3.54264471      23.41377271
16
Lattice="4.920000223338258 0.0 0.0 2.460000111669129 4.260843193416515 0.0 0.0 0.0 43.41000329055164" Properties=species:S:1:pos:R:3 energy=-4067.1954743923916 pbc="T T T"
C       -0.01872286       0.00259722      19.97277350
C        1.24261447       0.69548331      19.96224484
C        1.20188819       0.71088560      23.45077044
C        2.46782875       1.43505081      23.46207146
C        1.24424127       2.09649014      19.99582512
C        2.47353726       2.84408645      19.96244397
C        2.48272281       2.81146488      23.42501181
C        3.67072109       3.56253412      23.41710896
C        2.46167164      -0.00147043      20.01692942
C        3.68946623       0.75259491      19.99253452
C        3.70808607       0.70442693      23.41177546
C        4.90742584       1.39086336      23.41954722
C        3.70996141       2.15016234      20.00609955
C        4.93422696       2.87411069      19.98772073
C        4.87976870       2.83806423      23.38157512
C        6.14456217       3.53828868      23.41556786
16
Lattice="4.920000223338258 0.0 0.0 2.460000111669129 4.260843193416515 0.0 0.0 0.0 43.41000329055164" Properties=species:S:1:pos:R:3 energy=-4066.8147279473524 pbc="T T T"
C       -0.02853284       0.00529477      19.95438853
C        1.24707381       0.68562396      19.93879256
C        1.18910849       0.71243332      23.47726124
C        2.47178191       1.43766106      23.49514873
C        1.25338338       2.08072444      19.99171129
C        2.47973422       2.84557633      19.93907212
C        2.49121325       2.79832964      23.43528727
C        3.65990592       3.56849051      23.42179588
C        2.46554224       0.00178526      20.02639011
C        3.68957505       0.77510067      19.98810032
C        3.71394265       0.69734025      23.41398156
C        4.89964993       1.37826107      23.42552964
C        3.72232489       2.16557227      20.00875271
C        4.94589148       2.88890195      19.98052815
C        4.85914453       2.83600871      23.36446484
C        6.14026110       3.52852904      23.41879505
16
Lattice="4.920000223338258 0.0 0.0 2.460000111669129 4.260843193416515 0.0 0.0 0.0 43.41000329055164" Properties=species:S:1:pos:R:3 energy=-4066.686166811882 pbc="T T T"
C       -0.03218915       0.00702035      19.94509978
C        1.24756592       0.68081493      19.92790978
C        1.18540647       0.71358570      23.49016218
C        2.47317379       1.43568938      23.51085749
C        1.25778053       2.07595173      19.98900063
C        2.48159433       2.84601330      19.92822176
C        2.49244076       2.79461810      23.44054087
C        3.65546087       3.57056786      23.42411566
C        2.46866943       0.00527554      20.03022471
C        3.68990879       0.78370050      19.98613543
C        3.71398215       0.69229341      23.41560607
C        4.89608040       1.37516878      23.42831996
C        3.72800732       2.17416228      20.00937959
C        4.95265102       2.89289782      19.97740294
C        4.85168816       2.83480251      23.35685536
C        6.13777922       3.52307104      23.42016780
16
Lattice="4.920000223338258 0.0 0.0 2.460000111669129 4.260843193416515 0.0 0.0 0.0 43.41000329055164" Properties=species:S:1:pos:R:3 energy=-4066.6231788529076 pbc="T T T"
C       -0.03489130       0.00897332      19.93575043
C        1.24684393       0.67623968      19.91771313
C        1.18365577       0.71496275      23.50276894
C        2.47410075       1.43139865      23.52587894
C        1.26201605       2.07344708      19.98576399
C        2.48258049       2.84629548      19.91805358
C        2.49143943       2.79293181      23.44588118
C        3.65174849       3.57195900      23.42642233
C        2.47262037       0.01002013      20.03333038
C        3.69049376       0.79037089      19.98436187
C        3.71191244       0.68618258      23.41765719
C        4.89274951       1.37440654      23.43094810
C        3.73326481       2.18324870      20.00943933
C        4.96005507       2.89449544      19.97464838
C        4.84636102       2.83345594      23.35003120
C        6.13504941       3.51724528      23.42135103
16
Lattice="4.920000223338258 0.0 0.0 2.460000111669129 4.260843193416515 0.0 0.0 0.0 43.41000329055164" Properties=species:S:1:pos:R:3 energy=-4066.621334601366 pbc="T T T"
C       -0.03659365       0.01110508      19.92635383
C        1.24498221       0.67205767      19.90828281
C        1.18382975       0.71652064      23.51502916
C        2.47451107       1.42491377      23.54011995
C        1.26604140       2.07319669      19.98194888
C        2.48272937       2.84649855      19.90864220
C        2.48818467       2.79316217      23.45131569
C        3.64879533       3.57263250      23.42872251
C        2.47733909       0.01587541      20.03561953
C        3.69137612       0.79513844      19.98278613
C        3.70777979       0.67907860      23.42018219
C        4.88964765       1.37592472      23.43340239
C        3.73803461       2.19265167      20.00887150
C        4.96806859       2.89381987      19.97229590
C        4.84320048       2.83195528      23.34409458
C        6.13207354       3.51110219      23.42233275
16
Lattice="4.920000223338258 0.0 0.0 2.460000111669129 4.260843193416515 0.0 0.0 0.0 43.41000329055164" Properties=species:S:1:pos:R:3 energy=-4066.748200467623 pbc="T T T"
C       -0.03578167       0.01784218      19.89815266
C        1.23461091       0.66376884      19.88521784
C        1.19394914       0.72155302      23.54913019
C        2.47220286       1.39581551      23.57731041
C        1.27626751       2.08413030      19.96672550
C        2.47935290       2.84771765      19.88542134
C        2.46634769       2.80233684      23.46827481
C        3.64422975       3.57040396      23.43571881
C        2.49468117       0.03724891      20.03687055
C        3.69621091       0.79978226      19.97916417
C        3.68546615       0.65381766      23.43089942
C        4.88137991       1.39149205      23.43976736
C        3.74893571       2.21997138      20.00301302
C        4.99467998       2.88162357      19.96781862
C        4.84553709       2.82643785      23.33242988
C        6.12192999       3.49169126      23.42408541
16
Lattice="4.920000223338258 0.0 0.0 2.460000111669129 4.260843193416515 0.0 0.0 0.0 43.41000329055164" Properties=species:S:1:pos:R:3 energy=-4066.6167957425378 pbc="T T T"
C       -0.02750318       0.02339846      19.87087348
C        1.22393798       0.66570373      19.87072585
C        1.21069871       0.72462351      23.57773190
C        2.46420278       1.36303844      23.60490613
C        1.28274874       2.10538594      19.94587861
C        2.47457574       2.85243028      19.86994080
C        2.43375820       2.81536925      23.48632241
C        3.64423808       3.56275263      23.44333113
C        2.51218353       0.05672498      20.02879920
C        3.70493065       0.79607762      19.97658486
C        3.65680651       0.62900463      23.44638852
C        4.87403335       1.41369381      23.44524173
C        3.75437588       2.23919678      19.99074448
C        5.02064056       2.86486707      19.96704273
C        4.85944664       2.81949817      23.33101839
C        6.11092582       3.47386794      23.42446978
16
Lattice="4.920000223338258 0.0 0.0 2.460000111669129 4.260843193416515 0.0 0.0 0.0 43.41000329055164" Properties=species:S:1:pos:R:3 energy=-4066.510194057789 pbc="T T T"
C       -0.02355368       0.02471733      19.86226483
C        1.22202839       0.66921910      19.86780759
C        1.21555765       0.72445555      23.58569897
C        2.46040208       1.35378494      23.61183340
C        1.28406533       2.11284778      19.93784401
C        2.47382493       2.85524679      19.86639518
C        2.42281326       2.81862698      23.49255499
C        3.64464349       3.55932172      23.44614393
C        2.51694459       0.06126239      20.02400794
C        3.70873205       0.79445329      19.97572635
C        3.64790717       0.62232837      23.45249778
C        4.87177225       1.41995843      23.44710442
C        3.75510048       2.24252252      19.98533031
C        5.02771045       2.86074835      19.96743807
C        4.86473297       2.81697945      23.33288886
C        6.10731859       3.46916026      23.42446340
16
Lattice="4.920000223338258 0.0 0.0 2.460000111669129 4.260843193416515 0.0 0.0 0.0 43.41000329055164" Properties=species:S:1:pos:R:3 energy=-4066.4074170690997 pbc="T T T"
C       -0.01917276       0.02576427      19.85401797
C        1.22146576       0.67422326      19.86578657
C        1.21925490       0.72339380      23.59277012
C        2.45617527       1.34611281      23.61762810
C        1.28505735       2.11987853      19.92937356
C        2.47387262       2.85874848      19.86357514
C        2.41271971       2.82079697      23.49886488
C        3.64500801       3.55557533      23.44915080
C        2.52085609       0.06446950      20.01822181
C        3.71293065       0.79304510      19.97475968
C        3.63996593       0.61689882      23.45900162
C        4.86964098       1.42477494      23.44909253
C        3.75539966       2.24403834      19.97933418
C        5.03339904       2.85808528      19.96805506
C        4.86959110       2.81441960      23.33589630
C        6.10383572       3.46540821      23.42447168
16
Lattice="4.920000223338258 0.0 0.0 2.460000111669129 4.260843193416515 0.0 0.0 0.0 43.45000289236738" Properties=species:S:1:pos:R:3 energy=-4067.541502649098 pbc="T T T"
C        0.00000000       0.00000000      20.00000115
C        1.23000006       0.71014102      20.00000115
C        1.23000006       0.00000000      23.45000125
C        2.46000011       0.71014102      23.45000125
C        1.23000006       2.13042258      20.00000115
C        2.46000011       2.84056360      20.00000115
C        2.46000011       2.13042258      23.45000125
C        3.69000017       2.84056360      23.45000125
C        2.46000011       0.00000000      20.00000115
C        3.69000017       0.71014102      20.00000115
C        3.69000017       0.00000000      23.45000125
C        4.92000022       0.71014102      23.45000125
C        3.69000017       2.13042258      20.00000115
C        4.92000022       2.84056360      20.00000115
C        4.92000022       2.13042258      23.45000125
C        6.15000028       2.84056360      23.45000125
16
Lattice="4.920000223338258 0.0 0.0 2.460000111669129 4.260843193416515 0.0 0.0 0.0 43.45000289236738" Properties=species:S:1:pos:R:3 energy=-4067.460146733902 pbc="T T T"
C       -0.00773450      -0.00122944      19.99736042
C        1.23783956       0.71281035      19.99804758
C        1.21398071       0.00541339      23.46769611
C        2.45654431       0.71576011      23.44366834
C        1.23394814       2.11911414      20.01094454
C        2.45737783       2.83673100      20.00492109
C        2.45252401       2.12927263      23.45035699
C        3.70160015       2.82835592      23.45066494
C        2.46973657       0.01074811      19.99389679
C        3.69455167       0.71729659      19.99922756
C        3.69275739      -0.00089467      23.44953138
C        4.92846934       0.71759517      23.45445670
C        3.68643389       2.12793845      19.99757713
C        4.91699121       2.84779281      19.99713483
C        4.90621830       2.13090471      23.44034379
C        6.15876142       2.82689732      23.44417183
16
Lattice="4.920000223338258 0.0 0.0 2.460000111669129 4.260843193416515 0.0 0.0 0.0 43.45000289236738" Properties=species:S:1:pos:R:3 energy=-4066.6007991223614 pbc="T T T"
C       -0.02579090      -0.00475699      19.98979204
C        1.25783176       0.71731552      19.99243693
C        1.17526340       0.01773239      23.51879104
C        2.44603142       0.72792483      23.42597046
C        1.24244420       2.09109372      20.04269584
C        2.44942151       2.82632552      20.01938140
C        2.43631087       2.12426975      23.45096308
C        3.72634832       2.79929928      23.45308036
C        2.49625820       0.03919525      19.97604679
C        3.70801571       0.73684847      19.99670169
C        3.70027891      -0.00426300      23.44782232
C        4.94599125       0.73680987      23.46761649
C        3.67812656       2.12494371      19.99058514
C        4.91026098       2.86707022      19.98894601
C        4.87478405       2.13147691      23.41212138
C        6.17842376       2.79322112      23.42704901
16
Lattice="4.920000223338258 0.0 0.0 2.460000111669129 4.260843193416515 0.0 0.0 0.0 43.45000289236738" Properties=species:S:1:pos:R:3 energy=-4066.3587141342564 pbc="T T T"
C       -0.02872853      -0.00590403      19.98749156
C        1.26241849       0.71670981      19.99070214
C        1.16804951       0.01949517      23.53452057
C        2.44254606       0.72909746      23.42094231
C        1.24332755       2.08538315      20.05257154
C        2.44673707       2.82357073      20.02399449
C        2.43467936       2.12161875      23.45088930
C        3.72832978       2.79426642      23.45422030
C        2.50340713       0.04629729      19.97038799
C        3.71237775       0.74218181      19.99572403
C        3.70221783      -0.00573814      23.44707142
C        4.94707793       0.74131576      23.47183644
C        3.67680590       2.12666023      19.98842364
C        4.90935509       2.87207361      19.98648672
C        4.87045759       2.13098154      23.40317187
C        6.18094151       2.78649704      23.42156568
16
Lattice="4.920000223338258 0.0 0.0 2.460000111669129 4.260843193416515 0.0 0.0 0.0 43.45000289236738" Properties=species:S:1:pos:R:3 energy=-4066.2500981268176 pbc="T T T"
C       -0.02967842      -0.00705785      19.98535161
C        1.26567395       0.71479866      19.98905558
C        1.16444243       0.01978557      23.54930835
C        2.43917288       0.72836701      23.41655055
C        1.24298062       2.08202997      20.06193375
C        2.44406497       2.82133285      20.02845174
C        2.43537811       2.11837363      23.45063142
C        3.72634337       2.79220955      23.45562228
C        2.50940477       0.05178981      19.96493928
C        3.71664726       0.74674121      19.99465059
C        3.70367956      -0.00740596      23.44619736
C        4.94520589       0.74451721      23.47591968
C        3.67642764       2.13010670      19.98638189
C        4.90930624       2.87616658      19.98422683
C        4.87001677       2.13006438      23.39454018
C        6.18093397       2.78268727      23.41623890
16
Lattice="4.920000223338258 0.0 0.0 2.460000111669129 4.260843193416515 0.0 0.0 0.0 43.45000289236738" Properties=species:S:1:pos:R:3 energy=-4066.623318991535 pbc="T T T"
C       -0.02010905      -0.01046852      19.98015627
C        1.26699054       0.70209573      19.98480667
C        1.17435417       0.01210840      23.58652080
C        2.43076512       0.71409660      23.40809892
C        1.23434425       2.08624069      20.08605840
C        2.43662164       2.81846767      20.04057957
C        2.44963426       2.10604098      23.44854989
C        3.69904299       2.80323571      23.46160189
C        2.51972289       0.05762351      19.95021906
C        3.72867940       0.75566142      19.99072596
C        3.70394228      -0.01341206      23.44269932
C        4.92327908       0.74461262      23.48715416
C        3.68121839       2.15040138      19.98117839
C        4.91470608       2.88269620      19.97895807
C        4.88963728       2.12632448      23.37119810
C        6.16717065       2.78878178      23.40149453
16
Lattice="4.920000223338258 0.0 0.0 2.460000111669129 4.260843193416515 0.0 0.0 0.0 43.45000289236738" Properties=species:S:1:pos:R:3 energy=-4066.794400499378 pbc="T T T"
C       -0.01317472      -0.01147540      19.97890849
C        1.26478133       0.69637472      19.98369796
C        1.18301234       0.00724387      23.59611417
C        2.42896282       0.70568712      23.40705463
C        1.22920532       2.09169534      20.09249663
C        2.43457440       2.81896021      20.04410663
C        2.45682464       2.10166562      23.44736636
C        3.68526655       2.81144878      23.46411511
C        2.52064734       0.05611969      19.94597349
C        3.73232207       0.75723036      19.98914762
C        3.70224539      -0.01564578      23.44121194
C        4.91212362       0.74119069      23.49054258
C        3.68461505       2.15967532      19.97981899
C        4.91830801       2.88307824      19.97778288
C        4.90081291       2.12552013      23.36455089
C        6.15947294       2.79573770      23.39711161
16
Lattice="4.920000223338258 0.0 0.0 2.460000111669129 4.260843193416515 0.0 0.0 0.0 43.45000289236738" Properties=species:S:1:pos:R:3 energy=-4066.6122230055357 pbc="T T T"
C        0.02420528      -0.01348967      19.97676078
C        1.24795164       0.67611579      19.98154967
C        1.22371703      -0.01644253      23.61860577
C        2.43026504       0.66325266      23.41190032
C        1.20378667       2.12269780      20.10835546
C        2.43095530       2.82811626      20.05489043
C        2.48011499       2.08747050      23.44007767
C        3.63287217       2.85176306      23.47499799
C        2.51515897       0.03825862      19.93318781
C        3.74368164       0.75921157      19.98131911
C        3.68450120      -0.02423464      23.43370778
C        4.86765597       0.71422652      23.50228439
C        3.70310515       2.19758841      19.97674504
C        4.93883685       2.87893882      19.97615648
C        4.94326951       2.12701960      23.34622095
C        6.12992259       2.83401383      23.38324035
16
Lattice="4.920000223338258 0.0 0.0 2.460000111669129 4.260843193416515 0.0 0.0 0.0 43.45000289236738" Properties=species:S:1:pos:R:3 energy=-4066.2102877361654 pbc="T T T"
C        0.04160157      -0.01276068      19.97748050
C        1.23945835       0.67266234      19.98213308
C        1.23700993      -0.02652963      23.62045955
C        2.43654164       0.64401976      23.41909235
C        1.19363527       2.13724113      20.10984744
C        2.43305822       2.83606016      20.05797787
C        2.48134396       2.08371079      23.43513602
C        3.61896514       2.86762965      23.47977468
C        2.50960281       0.02684342      19.92969999
C        3.74661589       0.75892905      19.97653741
C        3.67003182      -0.02716251      23.42930239
C        4.85491833       0.69810635      23.50681938
C        3.71219262       2.21027597      19.97679830
C        4.94971101       2.87610212      19.97698628
C        4.95230061       2.12876628      23.34314071
C        6.12301285       2.85061238      23.37881404
16
Lattice="4.920000223338258 0.0 0.0 2.460000111669129 4.260843193416515 0.0 0.0 0.0 43.45000289236738" Properties=species:S:1:pos:R:3 energy=-4066.0743089135085 pbc="T T T"
C        0.04816042      -0.01189661      19.97827937
C        1.23651145       0.67353465      19.98286248
C        1.24000837      -0.03014938      23.61922283
C        2.44063464       0.63674657      23.42363953
C        1.19074267       2.14291155      20.10898119
C        2.43528362       2.84047068      20.05889313
C        2.47857806       2.08287072      23.43246267
C        3.61648299       2.87244170      23.48172819
C        2.50679153       0.02178086      19.92875147
C        3.74722178       0.75866642      19.97397674
C        3.66228596      -0.02801325      23.42706608
C        4.85243523       0.69085908      23.50863046
C        3.71593925       2.21370250      19.97723770
C        4.95431684       2.87514728      19.97771721
C        4.95223264       2.12922730      23.34331665
C        6.12237456       2.85620652      23.37723429
16
Lattice="4.920000223338258 0.0 0.0 2.460000111669129 4.260843193416515 0.0 0.0 0.0 43.45000289236738" Properties=species:S:1:pos:R:3 energy=-4066.0896930054346 pbc="T T T"
C        0.05518784      -0.00904451      19.98069018
C        1.23463136       0.68094180      19.98514600
C        1.23784144      -0.03361852      23.61274164
C        2.44897728       0.62893581      23.43427351
C        1.19111234       2.14993877      20.10417384
C        2.44211925       2.84943177      20.05943728
C        2.46686639       2.08347864      23.42696956
C        3.62045845       2.87372014      23.48448740
C        2.50183294       0.01452013      19.92848698
C        3.74657712       0.75794473      19.96864658
C        3.64803094      -0.02842827      23.42278668
C        4.85558181       0.67953669      23.51109829
C        3.72112354       2.21380834      19.97890970
C        4.96055809       2.87471068      19.97966617
C        4.94285631       2.12874633      23.34723381
C        6.12624489       2.85988408      23.37525239
4
Lattice="2.4599998470805247 0.0 0.0 1.2299999235402623 2.1304213675679113 0.0 0.0 0.0 43.5999967097199" Properties=species:S:1:pos:R:3 energy=-1016.8691213502933 pbc="T T T"
C        0.00000000       0.00000000      19.99999875
C        1.22999992       0.71014070      19.99999875
C        0.00000000       0.00000000      23.59999845
C        1.22999992       0.71014070      23.59999845
4
Lattice="2.4599998470805247 0.0 0.0 1.2299999235402623 2.1304213675679113 0.0 0.0 0.0 43.5999967097199" Properties=species:S:1:pos:R:3 energy=-1016.854703534609 pbc="T T T"
C        0.00099882       0.00404411      19.99652709
C        1.22514752       0.69816681      19.99361807
C       -0.00404800      -0.00129241      23.60302071
C        1.23790166       0.71936315      23.60683413
4
Lattice="2.4599998470805247 0.0 0.0 1.2299999235402623 2.1304213675679113 0.0 0.0 0.0 43.5999967097199" Properties=species:S:1:pos:R:3 energy=-1016.8437826538653 pbc="T T T"
C        0.00052377       0.00406099      19.99407144
C        1.22305264       0.69286194      19.98954605
C       -0.00460488      -0.00034115      23.60522543
C        1.24102847       0.72369989      23.61115709
4
Lattice="2.4599998470805247 0.0 0.0 1.2299999235402623 2.1304213675679113 0.0 0.0 0.0 43.5999967097199" Properties=species:S:1:pos:R:3 energy=-1016.8466017532339 pbc="T T T"
C       -0.00121710       0.00087962      19.99141172
C        1.22222265       0.69075357      19.98571965
C       -0.00270188       0.00278416      23.60770458
C        1.24169633       0.72586432      23.61516405
4
Lattice="2.4599998470805247 0.0 0.0 1.2299999235402623 2.1304213675679113 0.0 0.0 0.0 43.5999967097199" Properties=species:S:1:pos:R:3 energy=-1016.859653557448 pbc="T T T"
C       -0.00408064      -0.00534180      19.98849136
C        1.22251393       0.69168275      19.98219804
C        0.00147153       0.00792725      23.61053285
C        1.24009518       0.72601346      23.61877776
4
Lattice="2.4599998470805247 0.0 0.0 1.2299999235402623 2.1304213675679113 0.0 0.0 0.0 43.5999967097199" Properties=species:S:1:pos:R:3 energy=-1016.8652816879728 pbc="T T T"
C       -0.00578803      -0.00928652      19.98692279
C        1.22293444       0.69298007      19.98056219
C        0.00415227       0.01102099      23.61209181
C        1.23870132       0.72556712      23.62042321
4
Lattice="2.4599998470805247 0.0 0.0 1.2299999235402623 2.1304213675679113 0.0 0.0 0.0 43.5999967097199" Properties=species:S:1:pos:R:3 energy=-1016.8678082649648 pbc="T T T"
C       -0.00757083      -0.01353594      19.98527984
C        1.22342966       0.69458098      19.97901126
C        0.00701654       0.01427520      23.61374998
C        1.23712464       0.72496142      23.62195892
4
Lattice="2.4599998470805247 0.0 0.0 1.2299999235402623 2.1304213675679113 0.0 0.0 0.0 43.5999967097199" Properties=species:S:1:pos:R:3 energy=-1016.8664203483308 pbc="T T T"
C       -0.00933481      -0.01787104      19.98356336
C        1.22390513       0.69626616      19.97754385
C        0.00987287       0.01753401      23.61550613
C        1.23555681       0.72435254      23.62338666
4
Lattice="2.4599998470805247 0.0 0.0 1.2299999235402623 2.1304213675679113 0.0 0.0 0.0 43.5999967097199" Properties=species:S:1:pos:R:3 energy=-1016.8547002692428 pbc="T T T"
C       -0.01240447      -0.02586700      19.97992630
C        1.22439467       0.69895739      19.97484706
C        0.01481483       0.02351368      23.61929128
C        1.23319497       0.72367759      23.62593535
4
Lattice="2.4599998470805247 0.0 0.0 1.2299999235402623 2.1304213675679113 0.0 0.0 0.0 43.5999967097199" Properties=species:S:1:pos:R:3 energy=-1016.8480523921077 pbc="T T T"
C       -0.01355034      -0.02907698      19.97801944
C        1.22424907       0.69951259      19.97360768
C        0.01660865       0.02599912      23.62130282
C        1.23269262       0.72384693      23.62707006
4
Lattice="2.4599998470805247 0.0 0.0 1.2299999235402623 2.1304213675679113 0.0 0.0 0.0 43.5999967097199" Properties=species:S:1:pos:R:3 energy=-1016.8437487756925 pbc="T T T"
C       -0.01437724      -0.03152671      19.97606548
C        1.22378365       0.69930598      19.97243143
C        0.01781782       0.02802102      23.62337853
C        1.23277577       0.72448137      23.62812456
4
Lattice="2.4599998470805247 0.0 0.0 1.2299999235402623 2.1304213675679113 0.0 0.0 0.0 43.5999967097199" Properties=species:S:1:pos:R:3 energy=-1016.8432089018365 pbc="T T T"
C       -0.01487289      -0.03311868      19.97407355
C        1.22298617       0.69824013      19.97130796
C        0.01839605       0.02952415      23.62550623
C        1.23349066       0.72563605      23.62911227
4
Lattice="2.4599998470805247 0.0 0.0 1.2299999235402623 2.1304213675679113 0.0 0.0 0.0 43.5999967097199" Properties=species:S:1:pos:R:3 energy=-1016.8600722045887 pbc="T T T"
C       -0.01461291      -0.03290337      19.96798548
C        1.21884185       0.69004267      19.96814491
C        0.01662912       0.03098416      23.63205037
C        1.23914194       0.73215821      23.63181924
4
Lattice="2.4599998470805247 0.0 0.0 1.2299999235402623 2.1304213675679113 0.0 0.0 0.0 43.5999967097199" Properties=species:S:1:pos:R:3 energy=-1016.8680492217691 pbc="T T T"
C       -0.01361518      -0.02996402      19.96395450
C        1.21524998       0.68177439      19.96608519
C        0.01361157       0.03012378      23.63638763
C        1.24475362       0.73834752      23.63357268
4
Lattice="2.4599998470805247 0.0 0.0 1.2299999235402623 2.1304213675679113 0.0 0.0 0.0 43.5999967097199" Properties=species:S:1:pos:R:3 energy=-1016.8663202104381 pbc="T T T"
C       -0.01315004      -0.02830554      19.96198412
C        1.21348637       0.67744916      19.96503218
C        0.01204954       0.02950188      23.63850016
C        1.24761413       0.74163616      23.63448354
4
Lattice="2.4599998470805247 0.0 0.0 1.2299999235402623 2.1304213675679113 0.0 0.0 0.0 43.5999967097199" Properties=species:S:1:pos:R:3 energy=-1016.8541178095712 pbc="T T T"
C       -0.01279012      -0.02576277      19.95819202
C        1.21052701       0.66956844      19.96282339
C        0.00973604       0.02861422      23.64253666
C        1.25252707       0.74786178      23.63644794
4
Lattice="2.4599998470805247 0.0 0.0 1.2299999235402623 2.1304213675679113 0.0 0.0 0.0 43.5999967097199" Properties=species:S:1:pos:R:3 energy=-1016.8429135222647 pbc="T T T"
C       -0.01361913      -0.02547865      19.95466649
C        1.20875406       0.66394047      19.96041803
C        0.00943434       0.02911778      23.64623345
C        1.25543073       0.75270207      23.63868204
4
Lattice="2.4599998470805247 0.0 0.0 1.2299999235402623 2.1304213675679113 0.0 0.0 0.0 43.5999967097199" Properties=species:S:1:pos:R:3 energy=-1016.8420555473314 pbc="T T T"
C       -0.01454150      -0.02649125      19.95302329
C        1.20837466       0.66227876      19.95912417
C        0.01022248       0.03013651      23.64792912
C        1.25594435       0.75435764      23.63992342
4
Lattice="2.4599998470805247 0.0 0.0 1.2299999235402623 2.1304213675679113 0.0 0.0 0.0 43.5999967097199" Properties=species:S:1:pos:R:3 energy=-1016.850873668387 pbc="T T T"
C       -0.01729058      -0.03095025      19.94999923
C        1.20851860       0.66138407      19.95633352
C        0.01361821       0.03384258      23.65098510
C        1.25515377       0.75600526      23.64268216
4
Lattice="2.4599998470805247 0.0 0.0 1.2299999235402623 2.1304213675679113 0.0 0.0 0.0 43.5999967097199" Properties=species:S:1:pos:R:3 energy=-1016.8577845435472 pbc="T T T"
C       -0.01899751      -0.03426351      19.94862189
C        1.20892208       0.66201787      19.95483412
C        0.01606041       0.03644635      23.65234101
C        1.25401503       0.75608096      23.64420298
4
Lattice="2.4599998470805247 0.0 0.0 1.2299999235402623 2.1304213675679113 0.0 0.0 0.0 43.5999967097199" Properties=species:S:1:pos:R:3 energy=-1016.8635925413195 pbc="T T T"
C       -0.02081489      -0.03811877      19.94733336
C        1.20943531       0.66319191      19.95326688
C        0.01882061       0.03942446      23.65358368
C        1.25255897       0.75578407      23.64581608
4
Lattice="2.4599998470805247 0.0 0.0 1.2299999235402623 2.1304213675679113 0.0 0.0 0.0 43.5999967097199" Properties=species:S:1:pos:R:3 energy=-1016.8664502808531 pbc="T T T"
C       -0.02264520      -0.04232492      19.94613017
C        1.20996072       0.66471514      19.95163519
C        0.02172687       0.04264106      23.65471774
C        1.25095761       0.75525039      23.64751690
4
Lattice="2.4599998470805247 0.0 0.0 1.2299999235402623 2.1304213675679113 0.0 0.0 0.0 43.5999967097199" Properties=species:S:1:pos:R:3 energy=-1016.8654152958677 pbc="T T T"
C       -0.02438898      -0.04666001      19.94500732
C        1.21039876       0.66636569      19.94994477
C        0.02459103       0.04594127      23.65574992
C        1.24939919       0.75463471      23.64929799
4
Lattice="2.4599998470805247 0.0 0.0 1.2299999235402623 2.1304213675679113 0.0 0.0 0.0 43.5999967097199" Properties=species:S:1:pos:R:3 energy=-1016.8607934423181 pbc="T T T"
C       -0.02595394      -0.05088667      19.94395777
C        1.21065708       0.66790627      19.94820287
C        0.02722390       0.04916551      23.65668958
C        1.24807296       0.75409654      23.65114978
4
Lattice="2.4599998470805247 0.0 0.0 1.2299999235402623 2.1304213675679113 0.0 0.0 0.0 43.5999967097199" Properties=species:S:1:pos:R:3 energy=-1016.8540874688783 pbc="T T T"
C       -0.02726274      -0.05477085      19.94297357
C        1.21065821       0.66910288      19.94641903
C        0.02945228       0.05216604      23.65754745
C        1.24715225       0.75378359      23.65305995
4
Lattice="2.4599998470805247 0.0 0.0 1.2299999235402623 2.1304213675679113 0.0 0.0 0.0 43.5999967097199" Properties=species:S:1:pos:R:3 energy=-1016.8474873477217 pbc="T T T"
C       -0.02825844      -0.05810101      19.94204478
C        1.21034517       0.66974402      19.94460355
C        0.03113953       0.05482314      23.65833665
C        1.24677373       0.75381551      23.65501502
4
Lattice="2.4599998470805247 0.0 0.0 1.2299999235402623 2.1304213675679113 0.0 0.0 0.0 43.5999967097199" Properties=species:S:1:pos:R:3 energy=-1016.8430929813413 pbc="T T T"
C       -0.02891111      -0.06070670      19.94116150
C        1.20968809       0.66965930      19.94276895
C        0.03220265       0.05704659      23.65907063
C        1.24702037       0.75428248      23.65699892
4
Lattice="2.4599998470805247 0.0 0.0 1.2299999235402623 2.1304213675679113 0.0 0.0 0.0 43.5999967097199" Properties=species:S:1:pos:R:3 energy=-1016.8422965041354 pbc="T T T"
C       -0.02922097      -0.06247821      19.94031171
C        1.20868720       0.66873899      19.94092716
C        0.03261032       0.05877273      23.65976516
C        1.24792345       0.75524816      23.65899596
4
Lattice="2.4599998470805247 0.0 0.0 1.2299999235402623 2.1304213675679113 0.0 0.0 0.0 43.5999967097199" Properties=species:S:1:pos:R:3 energy=-1016.851249729712 pbc="T T T"
C       -0.02894690      -0.06344728      19.93866492
C        1.20578872       0.66431990      19.93727479
C        0.03158743       0.06065416      23.66109938
C        1.25157075       0.75875488      23.66296091
4
Lattice="2.4599998470805247 0.0 0.0 1.2299999235402623 2.1304213675679113 0.0 0.0 0.0 43.5999967097199" Properties=species:S:1:pos:R:3 energy=-1016.8634330826101 pbc="T T T"
C       -0.02793131      -0.06159508      19.93700429
C        1.20214475       0.65707262      19.93374738
C        0.02881957       0.06069488      23.66247093
C        1.25696700       0.76410923      23.66677740
4
Lattice="2.4599998470805247 0.0 0.0 1.2299999235402623 2.1304213675679113 0.0 0.0 0.0 43.5999967097199" Properties=species:S:1:pos:R:3 energy=-1016.863960983457 pbc="T T T"
C       -0.02693003      -0.05843635      19.93523671
C        1.19851102       0.64851047      19.93043946
C        0.02565355       0.05968699      23.66400212
C        1.26276547       0.77052055      23.67032171
4
Lattice="2.4599998470805247 0.0 0.0 1.2299999235402623 2.1304213675679113 0.0 0.0 0.0 43.5999967097199" Properties=species:S:1:pos:R:3 energy=-1016.8589297346373 pbc="T T T"
C       -0.02669310      -0.05695757      19.93428813
C        1.19695626       0.64432640      19.92889324
C        0.02439082       0.05913979      23.66485998
C        1.26534602       0.77377304      23.67195864
4
Lattice="2.4599998470805247 0.0 0.0 1.2299999235402623 2.1304213675679113 0.0 0.0 0.0 43.5999967097199" Properties=species:S:1:pos:R:3 energy=-1016.852175324934 pbc="T T T"
C       -0.02675049      -0.05584357      19.93328596
C        1.19569479       0.64050459      19.92742948
C        0.02356150       0.05876295      23.66579296
C        1.26749421       0.77685769      23.67349159
4
Lattice="2.4599998470805247 0.0 0.0 1.2299999235402623 2.1304213675679113 0.0 0.0 0.0 43.5999967097199" Properties=species:S:1:pos:R:3 energy=-1016.8415662866494 pbc="T T T"
C       -0.02793117      -0.05539799      19.93110227
C        1.19423504       0.63463588      19.92477286
C        0.02364138       0.05905262      23.66790919
C        1.27005476       0.78199116      23.67621568
16
Lattice="4.920000223338258 0.0 0.0 2.460000111669129 4.260843193416515 0.0 0.0 0.0 43.60000385917652" Properties=species:S:1:pos:R:3 energy=-4067.4611120577442 pbc="T T T"
C        0.00463344      -0.00054982      20.00346140
C        1.22912931       0.70343299      19.99874683
C        0.00224627      -0.00132328      23.59824639
C        1.22613847       0.70607217      23.59730908
C        1.23644506       2.12103455      20.00252287
C        2.45620058       2.84933516      19.98759409
C        1.22739303       2.13020384      23.60103986
C        2.45684040       2.83360705      23.59968288
C        2.46407438       0.00086899      20.00457039
C        3.68992017       0.71354302      19.99772185
C        2.46169297       0.00323406      23.59871095
C        3.68965736       0.71836938      23.60122905
C        3.68767243       2.13395319      20.00102793
C        4.92101102       2.83663356      20.00156955
C        3.68468263       2.12822578      23.60517396
C        4.92226250       2.84786596      23.60139289
16
Lattice="4.920000223338258 0.0 0.0 2.460000111669129 4.260843193416515 0.0 0.0 0.0 43.60000385917652" Properties=species:S:1:pos:R:3 energy=-4067.334408235279 pbc="T T T"
C        0.01250601      -0.00098828      20.00999479
C        1.22852845       0.69055718      19.99649597
C        0.00576438      -0.00420786      23.59477120
C        1.21898569       0.69858097      23.59201865
C        1.24811412       2.10354162      20.00725443
C        2.44927696       2.86511095      19.96344369
C        1.22190456       2.12947627      23.60303990
C        2.45057788       2.82079232      23.59911268
C        2.47198534       0.00178533      20.01342844
C        3.69008775       0.72023758      19.99345271
C        2.46483132       0.00980736      23.59616684
C        3.68939975       0.73330829      23.60366424
C        3.68317091       2.14100286      20.00281220
C        4.92359166       2.82899953      20.00483019
C        3.67521262       2.12504671      23.61532305
C        4.92606260       2.86145576      23.60419103
16
Lattice="4.920000223338258 0.0 0.0 2.460000111669129 4.260843193416515 0.0 0.0 0.0 43.60000385917652" Properties=species:S:1:pos:R:3 energy=-4067.252053662294 pbc="T T T"
C        0.01514469      -0.00058442      20.01288525
C        1.22929719       0.68464599      19.99561204
C        0.00661818      -0.00586667      23.59307173
C        1.21594689       0.69544998      23.58946844
C        1.25283292       2.09602195      20.00931043
C        2.44642898       2.87129668      19.95200964
C        1.21891797       2.12885103      23.60396541
C        2.44749006       2.81542261      23.59889307
C        2.47572857       0.00148113      20.01757610
C        3.69045296       0.72347419      19.99159471
C        2.46617407       0.01318963      23.59493239
C        3.68964534       0.73931169      23.60485975
C        3.68109420       2.14450857      20.00343158
C        4.92537183       2.82539884      20.00657439
C        3.67156240       2.12461323      23.62020728
C        4.92729374       2.86729219      23.60560779
16
Lattice="4.920000223338258 0.0 0.0 2.460000111669129 4.260843193416515 0.0 0.0 0.0 43.60000385917652" Properties=species:S:1:pos:R:3 energy=-4067.0937228647035 pbc="T T T"
C        0.01572680       0.00404427      20.01913674
C        1.23762478       0.67032009      19.99448644
C        0.00397861      -0.01197860      23.58826809
C        1.20996967       0.68980238      23.58247526
C        1.26069728       2.08087909      20.01344976
C        2.44135994       2.87971539      19.92194883
C        1.20871725       2.12555694      23.60625660
C        2.43850891       2.80559592      23.59866483
C        2.48581320      -0.00382618      20.02815824
C        3.69294448       0.73241790      19.98780694
C        2.46881847       0.02365241      23.59150037
C        3.69235192       0.74857823      23.60827558
C        3.67625713       2.15463406      20.00348948
C        4.93322167       2.81604207      20.01249608
C        3.66688850       2.12995834      23.63360142
C        4.92712140       2.87911428      23.60998534
16
Lattice="4.920000223338258 0.0 0.0 2.460000111669129 4.260843193416515 0.0 0.0 0.0 43.60000385917652" Properties=species:S:1:pos:R:3 energy=-4067.104350542786 pbc="T T T"
C        0.01008132       0.00967971      20.02068687
C        1.24796013       0.66430494      19.99533090
C       -0.00226063      -0.01678762      23.58543330
C        1.20868591       0.68960357      23.57856514
C        1.26048464       2.07776271      20.01402905
C        2.44106842       2.87629155      19.90660962
C        1.20111596       2.12225759      23.60725968
C        2.43291040       2.80504545      23.59897989
C        2.49163314      -0.01121279      20.03320064
C        3.69554736       0.73744195      19.98716728
C        2.46918854       0.03042307      23.58954362
C        3.69565499       0.74702723      23.61034618
C        3.67485105       2.16051678      20.00163011
C        4.94024186       2.81142891      20.01708019
C        3.66941533       2.13901308      23.64111356
C        4.92342158       2.88171047      23.61302397
16
Lattice="4.920000223338258 0.0 0.0 2.460000111669129 4.260843193416515 0.0 0.0 0.0 43.60000385917652" Properties=species:S:1:pos:R:3 energy=-4067.125942095599 pbc="T T T"
C        0.00597313       0.01289742      20.02053928
C        1.25404070       0.66245032      19.99628450
C       -0.00644832      -0.01922837      23.58416168
C        1.20867846       0.69052556      23.57688730
C        1.25901520       2.07816898      20.01357183
C        2.44174908       2.87229102      19.90062954
C        1.19726785       2.12040843      23.60758061
C        2.43029880       2.80650870      23.59930155
C        2.49434634      -0.01585194      20.03502876
C        3.69696573       0.73956852      19.98747635
C        2.46892689       0.03350623      23.58869866
C        3.69757050       0.74434173      23.61130635
C        3.67488640       2.16297024      20.00007903
C        4.94401114       2.80971208      20.01953787
C        3.67216223       2.14470699      23.64434595
C        4.92055588       2.88153068      23.61457075
16
Lattice="4.920000223338258 0.0 0.0 2.460000111669129 4.260843193416515 0.0 0.0 0.0 43.60000385917652" Properties=species:S:1:pos:R:3 energy=-4067.1487516299535 pbc="T T T"
C       -0.00321077       0.01916421      20.01827341
C        1.26655011       0.66100294      19.99924480
C       -0.01600587      -0.02369849      23.58196341
C        1.20936635       0.69402625      23.57414937
C        1.25434023       2.08206981      20.01112647
C        2.44437200       2.86128193      19.89235434
C        1.18997610       2.11671673      23.60785018
C        2.42561486       2.81228697      23.60029581
C        2.49951822      -0.02620546      20.03725219
C        3.69965237       0.74285382      19.98933919
C        2.46753561       0.03856432      23.58733702
C        3.70137275       0.73659440      23.61306754
C        3.67667517       2.16645894      19.99578845
C        4.95134401       2.80756438      20.02465401
C        3.67965804       2.15697546      23.64962858
C        4.91324081       2.87885038      23.61767522
16
Lattice="4.920000223338258 0.0 0.0 2.460000111669129 4.260843193416515 0.0 0.0 0.0 43.60000385917652" Properties=species:S:1:pos:R:3 energy=-4067.1376451675715 pbc="T T T"
C       -0.00754619       0.02179342      20.01614712
C        1.27233074       0.66134349      20.00121438
C       -0.02090926      -0.02550814      23.58105572
C        1.20980756       0.69638622      23.57310691
C        1.25163201       2.08509819      20.00916157
C        2.44612585       2.85502453      19.89012422
C        1.18675556       2.11507807      23.60780325
C        2.42361565       2.81622780      23.60097160
C        2.50200108      -0.03148155      20.03765976
C        3.70077025       0.74392838      19.99085192
C        2.46643254       0.04034582      23.58684542
C        3.70298131       0.73220716      23.61386715
C        3.67847615       2.16732596      19.99311093
C        4.95458318       2.80714871      20.02723631
C        3.68386401       2.16288560      23.65163762
C        4.90907955       2.87670294      23.61920614
16
Lattice="4.920000223338258 0.0 0.0 2.460000111669129 4.260843193416515 0.0 0.0 0.0 43.60000385917652" Properties=species:S:1:pos:R:3 energy=-4067.112090548813 pbc="T T T"
C       -0.01122429       0.02382366      20.01338062
C        1.27738968       0.66232462      20.00346630
C       -0.02557245      -0.02688606      23.58028694
C        1.21015376       0.69898655      23.57228942
C        1.24902795       2.08849902      20.00673882
C        2.44805150       2.84877125      19.88917405
C        1.18396440       2.11372643      23.60764287
C        2.42189338       2.82057458      23.60176487
C        2.50440058      -0.03649057      20.03762238
C        3.70165802       0.74456528      19.99270643
C        2.46508114       0.04152211      23.58649624
C        3.70419300       0.72792244      23.61461171
C        3.68087544       2.16751423      19.99013922
C        4.95732759       2.80716275      20.02977319
C        3.68795205       2.16820651      23.65320637
C        4.90482825       2.87428379      23.62070057
16
Lattice="4.920000223338258 0.0 0.0 2.460000111669129 4.260843193416515 0.0 0.0 0.0 43.60000385917652" Properties=species:S:1:pos:R:3 energy=-4067.078864768828 pbc="T T T"
C       -0.01392438       0.02509056      20.01001181
C        1.28147382       0.66387760      20.00595316
C       -0.02976695      -0.02772742      23.57966495
C        1.21030506       0.70169802      23.57169947
C        1.24677884       2.09201312      20.00390129
C        2.45007213       2.84287051      19.88948318
C        1.18169949       2.11277442      23.60737838
C        2.42048095       2.82509083      23.60267154
C        2.50667800      -0.04097010      20.03716935
C        3.70228363       0.74471810      19.99485577
C        2.46350047       0.04203875      23.58630115
C        3.70485759       0.72403898      23.61529990
C        3.68383503       2.16697482      19.98693015
C        4.95944345       2.80758311      20.03221211
C        3.69158444       2.17263815      23.65432817
C        4.90069842       2.87179715      23.62213962
16
Lattice="4.920000223338258 0.0 0.0 2.460000111669129 4.260843193416515 0.0 0.0 0.0 43.60000385917652" Properties=species:S:1:pos:R:3 energy=-4067.029616381796 pbc="T T T"
C       -0.01543294       0.02487906      20.00170269
C        1.28601066       0.66836487      20.01139203
C       -0.03599335      -0.02743798      23.57889090
C        1.20974219       0.70696812      23.57120074
C        1.24416581       2.09847094      19.99721163
C        2.45420762       2.83327074      19.89369505
C        1.17904568       2.11247550      23.60658534
C        2.41869014       2.83372553      23.60479472
C        2.51060296      -0.04734608      20.03517231
C        3.70277777       0.74337983      19.99981064
C        2.45972131       0.04100375      23.58641362
C        3.70402427       0.71842465      23.61649533
C        3.69114179       2.16362870      19.98005997
C        4.96143563       2.80948053      20.03657085
C        3.69621087       2.17786208      23.65523224
C        4.89364957       2.86735635      23.62477195
16
Lattice="4.920000223338258 0.0 0.0 2.460000111669129 4.260843193416515 0.0 0.0 0.0 43.60000385917652" Properties=species:S:1:pos:R:3 energy=-4067.032224865053 pbc="T T T"
C       -0.01396867       0.02329233      19.99691766
C        1.28628528       0.67110946      20.01420277
C       -0.03776192      -0.02616750      23.57875382
C        1.20895407       0.70931925      23.57128679
C        1.24407291       2.10106857      19.99349909
C        2.45629889       2.82998197      19.89745933
C        1.17874807       2.11328807      23.60608561
C        2.41834577       2.83745417      23.60598920
C        2.51207539      -0.04882192      20.03372178
C        3.70274896       0.74179500      20.00248504
C        2.45755100       0.03947551      23.58673773
C        3.70233822       0.71701527      23.61699330
C        3.69527734       2.16084081      19.97653915
C        4.96125450       2.81084670      20.03837353
C        3.69668716       2.17832336      23.65502836
C        4.89109304       2.86568556      23.62592685
16
Lattice="4.920000223338258 0.0 0.0 2.460000111669129 4.260843193416515 0.0 0.0 0.0 43.41000329055164" Properties=species:S:1:pos:R:3 energy=-4067.5301125080405 pbc="T T T"
C       -0.00048133       0.00407036      20.00741324
C        1.23015283       0.70712545      20.00450073
C        1.23940491       0.71329402      23.40548962
C        2.45893541       1.42032007      23.41303448
C        1.24088145       2.13502431      19.99918451
C        2.45025030       2.84481841      20.00061498
C        2.46160130       2.84240230      23.41025844
C        3.69468881       3.54822453      23.41169104
C        2.46057913       0.00110809      20.00075493
C        3.68698949       0.70935127      19.99103025
C        3.68252486       0.71106508      23.40553960
C        4.91587291       1.41182588      23.40929090
C        3.69141720       2.12969025      19.99433466
C        4.91840091       2.84259024      20.00279128
C        4.91699632       2.83570108      23.41191249
C        6.15178551       3.54902190      23.41215885
16
Lattice="4.920000223338258 0.0 0.0 2.460000111669129 4.260843193416515 0.0 0.0 0.0 43.41000329055164" Properties=species:S:1:pos:R:3 energy=-4067.3837884614663 pbc="T T T"
C       -0.00176879       0.01195124      20.02187001
C        1.23076730       0.70215332      20.01342178
C        1.25631239       0.71854699      23.39672417
C        2.45708822       1.42115641      23.41885808
C        1.25993011       2.14322000      19.99765901
C        2.43345769       2.85327826      20.00185407
C        2.46482563       2.84606515      23.41086915
C        3.70367949       3.54386207      23.41494960
C        2.46129237       0.00292404      20.00219673
C        3.68153308       0.70840074      19.97350778
C        3.66868456       0.71202321      23.39687478
C        4.90834627       1.39576857      23.40779364
C        3.69343971       2.12876400      19.98315121
C        4.91592357       2.84613728      20.00821765
C        4.91188217       2.82573809      23.41572014
C        6.15460623       3.54564388      23.41633221
16
Lattice="4.920000223338258 0.0 0.0 2.460000111669129 4.260843193416515 0.0 0.0 0.0 43.41000329055164" Properties=species:S:1:pos:R:3 energy=-4067.2187601259643 pbc="T T T"
C       -0.00389274       0.01913838      20.03526015
C        1.23215256       0.70001976      20.02206358
C        1.26787490       0.72086998      23.38872004
C        2.45608698       1.42407107      23.42397004
C        1.27137191       2.14850451      19.99647364
C        2.42417501       2.86178085      20.00309167
C        2.46808031       2.84968293      23.41177310
C        3.71156961       3.54108431      23.41782202
C        2.46084570       0.00367647      20.00347472
C        3.67760759       0.70914722      19.95717938
C        3.65797520       0.71056178      23.38897472
C        4.90282936       1.38209382      23.40605224
C        3.69343049       2.12928896      19.97243136
C        4.91527479       2.84831705      20.01315615
C        4.90919929       2.81517721      23.41949542
C        6.15541906       3.54221895      23.42006175
16
Lattice="4.920000223338258 0.0 0.0 2.460000111669129 4.260843193416515 0.0 0.0 0.0 43.41000329055164" Properties=species:S:1:pos:R:3 energy=-4067.174845170169 pbc="T T T"
C       -0.00531842       0.02238904      20.04135498
C        1.23316502       0.70037141      20.02621421
C        1.27089658       0.72054631      23.38514507
C        2.45602961       1.42652456      23.42613437
C        1.27323896       2.14965950      19.99607937
C        2.42330553       2.86604946      20.00370315
C        2.46970126       2.85146674      23.41238828
C        3.71492540       3.54045681      23.41903884
C        2.46009507       0.00354666      20.00402915
C        3.67638910       0.71036407      19.94968631
C        3.65426447       0.70863305      23.38545424
C        4.90110866       1.37649124      23.40504725
C        3.69249261       2.13030031      19.96734379
C        4.91579254       2.84871096      20.01534301
C        4.90908222       2.80966062      23.42136242
C        6.15483138       3.54046251      23.42167557
16
Lattice="4.920000223338258 0.0 0.0 2.460000111669129 4.260843193416515 0.0 0.0 0.0 43.41000329055164" Properties=species:S:1:pos:R:3 energy=-4067.1665221602434 pbc="T T T"
C       -0.00694604       0.02539446      20.04695405
C        1.23434114       0.70174552      20.03021796
C        1.27190166       0.71916644      23.38192060
C        2.45628518       1.42961621      23.42798030
C        1.27238804       2.14978444      19.99585116
C        2.42507777       2.87024968      20.00430434
C        2.47129560       2.85322796      23.41313315
C        3.71782695       3.54034069      23.42007694
C        2.45902198       0.00308363      20.00451528
C        3.67567374       0.71217878      19.94274984
C        3.65178764       0.70586988      23.38228595
C        4.90016191       1.37180721      23.40393634
C        3.69094031       2.13187848      19.96248919
C        4.91685800       2.84859179      20.01729293
C        4.90984408       2.80404694      23.42320705
C        6.15354205       3.53865113      23.42308492
16
Lattice="4.920000223338258 0.0 0.0 2.460000111669129 4.260843193416515 0.0 0.0 0.0 43.41000329055164" Properties=species:S:1:pos:R:3 energy=-4067.224457781575 pbc="T T T"
C       -0.01049426       0.03068989      20.05642077
C        1.23685655       0.70743819      20.03769530
C        1.26810303       0.71351074      23.37668981
C        2.45761535       1.43716368      23.43056848
C        1.26335069       2.14741552      19.99597622
C        2.43568830       2.87791815      20.00545184
C        2.47429963       2.85664283      23.41504635
C        3.72219551       3.54138413      23.42155079
C        2.45622111       0.00136038      20.00524362
C        3.67551895       0.71747109      19.93083780
C        3.65055698       0.69812210      23.37716839
C        4.90060497       1.36520051      23.40137101
C        3.68628875       2.13679272      19.95362809
C        4.92031364       2.84684183      20.02035368
C        4.91385178       2.79292121      23.42678781
C        6.14902902       3.53476027      23.42521005
16
Lattice="4.920000223338258 0.0 0.0 2.460000111669129 4.260843193416515 0.0 0.0 0.0 43.41000329055164" Properties=species:S:1:pos:R:3 energy=-4067.2595586980215 pbc="T T T"
C       -0.01219948       0.03301093      20.06018694
C        1.23798138       0.71155144      20.04112945
C        1.26371457       0.70954546      23.37475209
C        2.45857375       1.44117651      23.43124668
C        1.25600856       2.14534453      19.99636105
C        2.44367044       2.88106676      20.00598437
C        2.47564370       2.85825791      23.41621865
C        3.72366874       3.54231678      23.42196837
C        2.45471720       0.00027170      20.00546513
C        3.67587981       0.72079464      19.92598944
C        3.65165858       0.69342481      23.37528403
C        4.90190667       1.36317336      23.39991465
C        3.68343985       2.14008488      19.94969254
C        4.92244207       2.84530779      20.02140975
C        4.91689016       2.78767683      23.42849630
C        6.14600400       3.53262891      23.42590056
16
Lattice="4.920000223338258 0.0 0.0 2.460000111669129 4.260843193416515 0.0 0.0 0.0 43.41000329055164" Properties=species:S:1:pos:R:3 energy=-4067.278435098952 pbc="T T T"
C       -0.01369546       0.03514124      20.06325539
C        1.23886169       0.71628494      20.04433766
C        1.25809984       0.70511384      23.37330012
C        2.45963106       1.44497998      23.43148042
C        1.24753951       2.14303088      19.99697364
C        2.45267441       2.88356769      20.00648088
C        2.47683282       2.85976699      23.41752814
C        3.72469383       3.54332313      23.42217149
C        2.45331544      -0.00081877      20.00557814
C        3.67636692       0.72442006      19.92195019
C        3.65372173       0.68844584      23.37388049
C        4.90381024       1.36187001      23.39834902
C        3.68046793       2.14384975      19.94613033
C        4.92460761       2.84345798      20.02212046
C        4.92040743       2.78285190      23.43012724
C        6.14266500       3.53034777      23.42633638
16
Lattice="4.920000223338258 0.0 0.0 2.460000111669129 4.260843193416515 0.0 0.0 0.0 43.41000329055164" Properties=species:S:1:pos:R:3 energy=-4067.2727343140323 pbc="T T T"
C       -0.01486249       0.03710019      20.06559774
C        1.23938845       0.72141724      20.04730470
C        1.25166096       0.70046765      23.37234884
C        2.46071500       1.44827859      23.43125324
C        1.23857346       2.14074026      19.99781681
C        2.46205934       2.88533663      20.00693703
C        2.47782782       2.86111879      23.41896301
C        3.72530060       3.54423321      23.42216672
C        2.45214097      -0.00178336      20.00557425
C        3.67685151       0.72821193      19.91876111
C        3.65656257       0.68341947      23.37297123
C        4.90618904       1.36116703      23.39668535
C        3.67757558       2.14797973      19.94296934
C        4.92661128       2.84142887      20.02247009
C        4.92420615       2.77860531      23.43166037
C        6.13919976       3.52791170      23.42652017
16
Lattice="4.920000223338258 0.0 0.0 2.460000111669129 4.260843193416515 0.0 0.0 0.0 43.41000329055164" Properties=species:S:1:pos:R:3 energy=-4067.2420042261188 pbc="T T T"
C       -0.01559749       0.03890174      20.06719463
C        1.23947276       0.72669909      20.05001611
C        1.24482855       0.69585887      23.37190375
C        2.46176295       1.45079090      23.43055765
C        1.22973237       2.13871435      19.99888789
C        2.47118377       2.88635674      20.00735114
C        2.47859074       2.86224541      23.42050609
C        3.72552310       3.54487622      23.42196633
C        2.45130137      -0.00249267      20.00544772
C        3.67721736       0.73202683      19.91645307
C        3.65997595       0.67858669      23.37256102
C        4.90889356       1.36093234      23.39493996
C        3.67497880       2.15233298      19.94023267
C        4.92824963       2.83938777      20.02244831
C        4.92807067       2.77508375      23.43307353
C        6.13581591       3.52533225      23.42646013
16
Lattice="4.920000223338258 0.0 0.0 2.460000111669129 4.260843193416515 0.0 0.0 0.0 43.41000329055164" Properties=species:S:1:pos:R:3 energy=-4067.5518469206177 pbc="T T T"
C        0.00000000       0.00000000      20.00000115
C        1.23000006       0.71014102      20.00000115
C        1.23000006       0.71014102      23.41000115
C        2.46000011       1.42028156      23.41000115
C        1.23000006       2.13042258      20.00000115
C        2.46000011       2.84056360      20.00000115
C        2.46000011       2.84056360      23.41000115
C        3.69000017       3.55070414      23.41000115
C        2.46000011       0.00000000      20.00000115
C        3.69000017       0.71014102      20.00000115
C        3.69000017       0.71014102      23.41000115
C        4.92000022       1.42028156      23.41000115
C        3.69000017       2.13042258      20.00000115
C        4.92000022       2.84056360      20.00000115
C        4.92000022       2.84056360      23.41000115
C        6.15000028       3.55070414      23.41000115
16
Lattice="4.920000223338258 0.0 0.0 2.460000111669129 4.260843193416515 0.0 0.0 0.0 43.41000329055164" Properties=species:S:1:pos:R:3 energy=-4067.5314140285304 pbc="T T T"
C       -0.00252218      -0.00117918      20.00007579
C        1.22718759       0.70908437      19.99923972
C        1.22871233       0.71113030      23.41373446
C        2.45235174       1.42447302      23.40694280
C        1.22719731       2.13697292      19.98803500
C        2.45876580       2.84340408      20.00588504
C        2.46252710       2.83897880      23.41216243
C        3.69353939       3.54454113      23.41901704
C        2.46715608       0.00123476      19.99759592
C        3.68769113       0.70156054      20.00025621
C        3.69096620       0.70687163      23.40740250
C        4.91961913       1.42302164      23.40843492
C        3.69655231       2.12884360      20.00626161
C        4.91456988       2.83899354      20.00238422
C        4.92326071       2.84596605      23.40409927
C        6.15242549       3.55173605      23.40847308
16
Lattice="4.920000223338258 0.0 0.0 2.460000111669129 4.260843193416515 0.0 0.0 0.0 43.41000329055164" Properties=species:S:1:pos:R:3 energy=-4067.47438903616 pbc="T T T"
C       -0.00488874      -0.00236831      20.00017444
C        1.22455948       0.70820419      19.99843801
C        1.22735989       0.71200880      23.41744231
C        2.44505707       1.42837505      23.40392641
C        1.22445857       2.14318780      19.97622201
C        2.45767568       2.84604102      20.01168691
C        2.46498719       2.83747391      23.41431487
C        3.69698426       3.53871471      23.42794341
C        2.47374303       0.00235073      19.99523009
C        3.68559609       0.69340886      20.00051396
C        3.69179257       0.70390209      23.40481332
C        4.91922175       1.42568332      23.40687207
C        3.70262763       2.12717754      20.01249194
C        4.90942477       2.83757516      20.00471168
C        4.92650089       2.85111737      23.39827477
C        6.15489985       3.55278100      23.40694378
16
Lattice="4.920000223338258 0.0 0.0 2.460000111669129 4.260843193416515 0.0 0.0 0.0 43.41000329055164" Properties=species:S:1:pos:R:3 energy=-4067.393605104252 pbc="T T T"
C       -0.00694926      -0.00357371      20.00032248
C        1.22227912       0.70766088      19.99754750
C        1.22588277       0.71267833      23.42110349
C        2.43843719       1.43172271      23.40098568
C        1.22184857       2.14876068      19.96471488
C        2.45684847       2.84828305      20.01732022
C        2.46731684       2.83612591      23.41645234
C        3.70024401       3.53353624      23.43668711
C        2.47921678       0.00322454      19.99294471
C        3.68392954       0.68609196      20.00077164
C        3.69236129       0.70150666      23.40224550
C        4.91879541       1.42819263      23.40530930
C        3.70777945       2.12534055      20.01866384
C        4.90484177       2.83645317      20.00692012
C        4.92969923       2.85577992      23.39260479
C        6.15746882       3.55384972      23.40540638
16
Lattice="4.920000223338258 0.0 0.0 2.460000111669129 4.260843193416515 0.0 0.0 0.0 43.41000329055164" Properties=species:S:1:pos:R:3 energy=-4067.306764054353 pbc="T T T"
C       -0.00856353      -0.00479446      20.00054457
C        1.22047718       0.70758580      19.99652215
C        1.22423471       0.71305974      23.42469895
C        2.43276489       1.43428993      23.39815372
C        1.21943498       2.15343136      19.95366267
C        2.45636953       2.84995880      20.02270374
C        2.46946205       2.83500471      23.41856950
C        3.70323503       3.52927396      23.44516015
C        2.48310332       0.00374616      19.99078003
C        3.68287951       0.67996472      20.00102968
C        3.69258286       0.69991878      23.39971155
C        4.91833005       1.43048202      23.40374487
C        3.71162607       2.12326524      20.02474974
C        4.90106306       2.83574988      20.00894878
C        4.93283354       2.85974640      23.38716344
C        6.16016675       3.55495021      23.40385646
16
Lattice="4.920000223338258 0.0 0.0 2.460000111669129 4.260843193416515 0.0 0.0 0.0 43.41000329055164" Properties=species:S:1:pos:R:3 energy=-4067.2317935624937 pbc="T T T"
C       -0.00960872      -0.00602125      20.00086253
C        1.21924416       0.70807135      19.99531943
C        1.22238960       0.71309676      23.42821020
C        2.42825444       1.43590224      23.39546209
C        1.21728695       2.15699862      19.94320783
C        2.45628715       2.85092452      20.02776127
C        2.47138147       2.83416657      23.42066056
C        3.70588571       3.52613964      23.45327871
C        2.48504024       0.00383624      19.98877293
C        3.68258077       0.67530439      20.00129019
C        3.69239762       0.69931779      23.39722339
C        4.91781838       1.43249387      23.40217787
C        3.71388003       2.12091237      20.03072126
C        4.89827206       2.83554995      20.01074049
C        4.93587950       2.86285203      23.38202016
C        6.16301063       3.55608814      23.40229107
16
Lattice="4.920000223338258 0.0 0.0 2.460000111669129 4.260843193416515 0.0 0.0 0.0 43.41000329055164" Properties=species:S:1:pos:R:3 energy=-4067.182166801169 pbc="T T T"
C       -0.00998680      -0.00723634      20.00129455
C        1.21862664       0.70916431      19.99390259
C        1.22034629       0.71275801      23.43161871
C        2.42505563       1.43644607      23.39294095
C        1.21547233       2.15932828      19.93348425
C        2.45661245       2.85107095      20.03242229
C        2.47304858       2.83364887      23.42271900
C        3.70814092       3.52427896      23.46096322
C        2.48481090       0.00346100      19.98695601
C        3.68309202       0.67229010      20.00155647
C        3.69177552       0.69981911      23.39479246
C        4.91725612       1.43418317      23.40060847
C        3.71436999       2.11828009      20.03654874
C        4.89657408       2.83588860      20.01224405
C        4.93880960       2.86498431      23.37723954
C        6.16599572       3.55726776      23.40070870
16
Lattice="4.920000223338258 0.0 0.0 2.460000111669129 4.260843193416515 0.0 0.0 0.0 43.41000329055164" Properties=species:S:1:pos:R:3 energy=-4067.1635973446487 pbc="T T T"
C       -0.00963120      -0.00841459      20.00185454
C        1.21862636       0.71086222      19.99224266
C        1.21813113       0.71203800      23.43490537
C        2.42325071       1.43587444      23.39061931
C        1.21405400       2.16035702      19.92461491
C        2.45732176       2.85032931      20.03662258
C        2.47445238       2.83346669      23.42473737
C        3.70996527       3.52376594      23.46813838
C        2.48236515       0.00264081      19.98535675
C        3.68438293       0.67099059      20.00183259
C        3.69071522       0.70146772      23.39242971
C        4.91664241       1.43551956      23.39903823
C        3.71305305       2.11540903      20.04220049
C        4.89598516       2.83674510      20.01341652
C        4.94159274       2.86608906      23.37288140
C        6.16909293       3.55849235      23.39910918
16
Lattice="4.920000223338258 0.0 0.0 2.460000111669129 4.260843193416515 0.0 0.0 0.0 43.41000329055164" Properties=species:S:1:pos:R:3 energy=-4067.173081328267 pbc="T T T"
C       -0.00851273      -0.00952518      20.00255143
C        1.21920118       0.71311329      19.99032010
C        1.21579815       0.71095712      23.43805013
C        2.42285385       1.43420924      23.38852537
C        1.21308561       2.16009339      19.91670920
C        2.45835949       2.84867639      20.04030475
C        2.47559711       2.83361182      23.42670734
C        3.71134449       3.52460078      23.47473354
C        2.47782338       0.00144973      19.98399689
C        3.68633508       0.67136120      20.00212288
C        3.68924315       0.70423576      23.39014579
C        4.91598037       1.43648858      23.39747044
C        3.71001559       2.11238166      20.04764231
C        4.89643215       2.83804282      20.01422510
C        4.94419469       2.86617266      23.36900098
C        6.17224843       3.55976399      23.39749374
16
Lattice="4.920000223338258 0.0 0.0 2.460000111669129 4.260843193416515 0.0 0.0 0.0 43.41000329055164" Properties=species:S:1:pos:R:3 energy=-4067.200483055763 pbc="T T T"
C       -0.00664373      -0.01053373      20.00338883
C        1.22026801       0.71581890      19.98812611
C        1.21342651       0.70956097      23.44103167
C        2.42381191       1.43153998      23.38668658
C        1.21260754       2.15861516      19.90986081
C        2.45964221       2.84613814      20.04341912
C        2.47650072       2.83405445      23.42861946
C        3.71228493       3.52671130      23.48068325
C        2.47146247       0.00000612      19.98289187
C        3.68875704       0.67325066      20.00243172
C        3.68741322       0.70802368      23.38795105
C        4.91527777       1.43709185      23.39591027
C        3.70546331       2.10931617      20.05283722
C        4.89776286       2.83965654      20.01464851
C        4.94657956       2.86530029      23.36564865
C        6.17538568       3.56108277      23.39586489
16
Lattice="4.920000223338258 0.0 0.0 2.460000111669129 4.260843193416515 0.0 0.0 0.0 43.41000329055164" Properties=species:S:1:pos:R:3 energy=-4067.2319362862027 pbc="T T T"
C       -0.00408039      -0.01140494      20.00436466
C        1.22170764       0.71883937      19.98566320
C        1.21111564       0.70791883      23.44382716
C        2.42600711       1.42801925      23.38512953
C        1.21264287       2.15606434      19.90414608
C        2.46106286       2.84279130      20.04592445
C        2.47719257       2.83474724      23.43046321
C        3.71281115       3.52995738      23.48592819
C        2.46368751      -0.00154406      19.98205041
C        3.69141011       0.67641629      20.00276345
C        3.68530678       0.71266523      23.38585553
C        4.91454785       1.43734640      23.39436503
C        3.69970181       2.10635541      20.05774554
C        4.89976512       2.84142567      20.01467754
C        4.94871164       2.86359056      23.36286950
C        6.17840974       3.56244497      23.39422654
16
Lattice="4.920000223338258 0.0 0.0 2.460000111669129 4.260843193416515 0.0 0.0 0.0 43.41000329055164" Properties=species:S:1:pos:R:3 energy=-4067.2538756005006 pbc="T T T"
C       -0.00092264      -0.01210538      20.00547095
C        1.22337178       0.72200170      19.98294542
C        1.20897847       0.70612169      23.44641229
C        2.42926144       1.42385506      23.38387956
C        1.21319366       2.15263882      19.89962303
C        2.46249646       2.83876274      20.04778900
C        2.47771003       2.83563111      23.43222692
C        3.71296221       3.53413863      23.49041621
C        2.45499440      -0.00304755      19.98147420
C        3.69403860       0.68054501      20.00312258
C        3.68303245       0.71793597      23.38386887
C        4.91381017       1.43728299      23.39284404
C        3.69311133       2.10365293      20.06232552
C        4.90219041       2.84317144      20.01431481
C        4.95055771       2.86120681      23.36070248
C        6.18121353       3.56384128      23.39258412
16
Lattice="4.920000223338258 0.0 0.0 2.460000111669129 4.260843193416515 0.0 0.0 0.0 43.41000329055164" Properties=species:S:1:pos:R:3 energy=-4067.256557418438 pbc="T T T"
C        0.00268863      -0.01260638      20.00669394
C        1.22509329       0.72511027      19.97999779
C        1.20713365       0.70427887      23.44876156
C        2.43334417       1.41929994      23.38296022
C        1.21423821       2.14858019      19.89633050
C        2.46380749       2.83422523      20.04899149
C        2.47809462       2.83664176      23.43389779
C        3.71278740       3.53900507      23.49410342
C        2.44592871      -0.00436339      19.98115804
C        3.69639823       0.68527910      20.00351418
C        3.68072478       0.72356498      23.38200009
C        4.91309098       1.43694355      23.39135868
C        3.68611761       2.10135777      20.06653435
C        4.90477820       2.84471524      20.01357390
C        4.95208863       2.85834594      23.35917930
C        6.18368539       3.56525511      23.39094474
16
Lattice="4.920000223338258 0.0 0.0 2.460000111669129 4.260843193416515 0.0 0.0 0.0 43.41000329055164" Properties=species:S:1:pos:R:3 energy=-4067.236412014621 pbc="T T T"
C        0.00657582      -0.01288735      20.00801416
C        1.22669800       0.72795884      19.97685507
C        1.20569718       0.70251378      23.45084894
C        2.43798220       1.41463814      23.38239273
C        1.21572877       2.14416003      19.89428760
C        2.46485788       2.82939074      20.04952187
C        2.47838769       2.83771626      23.43546217
C        3.71234229       3.54427041      23.49695530
C        2.43704711      -0.00538000      19.98109020
C        3.69827883       0.69024123      20.00394403
C        3.67854075       0.72924951      23.38025757
C        4.91242361       1.43637897      23.38992232
C        3.67916267       2.09960040      20.07032900
C        4.90727908       2.84589575      20.01247779
C        4.95328081       2.85522550      23.35832346
C        6.18571730       3.56666103      23.38931777
16
Lattice="4.920000223338258 0.0 0.0 2.460000111669129 4.260843193416515 0.0 0.0 0.0 43.41000329055164" Properties=species:S:1:pos:R:3 energy=-4067.1964144096473 pbc="T T T"
C        0.01052406      -0.01294335      20.00940766
C        1.22802584       0.73034783      19.97356028
C        1.20477210       0.70095553      23.45264829
C        2.44287776       1.41017279      23.38219434
C        1.21758325       2.13965782      19.89349436
C        2.46552463       2.82450412      20.04938285
C        2.47862410       2.83879643      23.43690520
C        3.71168745       3.54963112      23.49894767
C        2.42887414      -0.00603104      19.98125297
C        3.69952566       0.69506470      20.00441972
C        3.67665108       0.73466979      23.37864844
C        4.91185135       1.43564903      23.38855036
C        3.67266847       2.09847631      20.07366763
C        4.90947934       2.84658769      20.01105713
C        4.95411447       2.85206701      23.35814885
C        6.18721632       3.56802746      23.38771424
16
Lattice="4.920000223338258 0.0 0.0 2.460000111669129 4.260843193416515 0.0 0.0 0.0 43.45000289236738" Properties=species:S:1:pos:R:3 energy=-4067.519772046114 pbc="T T T"
C       -0.00145633       0.00289244      19.99968845
C        1.22843939       0.71449483      20.00243834
C        1.23177611       0.00162955      23.44933051
C        2.46724781       0.71274815      23.45613419
C        1.22173505       2.12930365      20.00239844
C        2.45327491       2.83261592      20.00095917
C        2.45643864       2.13169841      23.44680768
C        3.69048192       2.83573568      23.44773244
C        2.45797099       0.00426498      19.99876501
C        3.68479059       0.71726325      20.00324425
C        3.69457919       0.00090366      23.44507325
C        4.92116336       0.70189916      23.45058669
C        3.69541773       2.12613164      19.99900249
C        4.91883429       2.83741902      19.99390669
C        4.92918795       2.12869727      23.45625571
C        6.15011840       2.84680897      23.44767668
16
Lattice="4.920000223338258 0.0 0.0 2.460000111669129 4.260843193416515 0.0 0.0 0.0 43.45000289236738" Properties=species:S:1:pos:R:3 energy=-4067.459487946298 pbc="T T T"
C       -0.00301760       0.00552809      19.99940371
C        1.22677845       0.71858930      20.00485756
C        1.23371774       0.00300542      23.44868131
C        2.47420382       0.71530114      23.46217395
C        1.21372595       2.12823671      20.00476906
C        2.44680706       2.82505156      20.00191420
C        2.45311227       2.13298023      23.44365206
C        3.69111278       2.83107328      23.44548792
C        2.45590303       0.00838539      19.99754513
C        3.67982148       0.72398137      20.00645121
C        3.69901393       0.00184609      23.44020868
C        4.92254206       0.69405222      23.45116355
C        3.70038662       2.12214909      19.99801374
C        4.91760820       2.83459654      19.98787763
C        4.93799396       2.12692624      23.46243621
C        6.15029025       2.85280391      23.44536408
16
Lattice="4.920000223338258 0.0 0.0 2.460000111669129 4.260843193416515 0.0 0.0 0.0 43.45000289236738" Properties=species:S:1:pos:R:3 energy=-4067.373982431119 pbc="T T T"
C       -0.00477780       0.00768037      19.99916938
C        1.22492236       0.72217632      20.00723521
C        1.23597863       0.00389504      23.44807552
C        2.48059658       0.71774843      23.46802986
C        1.20622050       2.12727205      20.00708226
C        2.44082972       2.81822279      20.00285665
C        2.45024467       2.13427202      23.44057260
C        3.69202777       2.82672896      23.44329368
C        2.45376156       0.01223113      19.99635123
C        3.67531062       0.72990028      20.00958126
C        3.70316350       0.00286509      23.43546954
C        4.92434147       0.68696870      23.45172630
C        3.70449327       2.11877330      19.99703905
C        4.91625964       2.83239381      19.98197169
C        4.94606258       2.12507192      23.46846970
C        6.15056494       2.85830638      23.44307607
16
Lattice="4.920000223338258 0.0 0.0 2.460000111669129 4.260843193416515 0.0 0.0 0.0 43.45000289236738" Properties=species:S:1:pos:R:3 energy=-4067.281778697745 pbc="T T T"
C       -0.00681374       0.00916212      19.99900862
C        1.22278731       0.72503527      20.00954929
C        1.23868981       0.00410295      23.44753506
C        2.48619117       0.72004261      23.47361537
C        1.19944329       2.12645632      20.00931046
C        2.43553999       2.81243586      20.00377772
C        2.44803662       2.13557468      23.43760737
C        3.69334134       2.82283535      23.44117716
C        2.45151861       0.01569049      19.99519349
C        3.67143965       0.73466393      20.01259661
C        3.70690189       0.00399491      23.43091587
C        4.92674093       0.68096915      23.45227257
C        3.70738297       2.11627118      19.99608346
C        4.91472880       2.83106649      19.97624531
C        4.95308641       2.12310928      23.47428531
C        6.15098497       2.86309601      23.44082633
16
Lattice="4.920000223338258 0.0 0.0 2.460000111669129 4.260843193416515 0.0 0.0 0.0 43.45000289236738" Properties=species:S:1:pos:R:3 energy=-4067.1508388791526 pbc="T T T"
C       -0.01190676       0.00959943      19.99899358
C        1.21742350       0.72791327      20.01390285
C        1.24582213       0.00194996      23.44672973
C        2.49430037       0.72400081      23.48365047
C        1.18877470       2.12542353      20.01341080
C        2.42757418       2.80490677      20.00552101
C        2.44623243       2.13819947      23.43216163
C        3.69748512       2.81679583      23.43728507
C        2.44666428       0.02111149      19.99302368
C        3.66610331       0.73967264      20.01814283
C        3.71278544       0.00668970      23.42258714
C        4.93383512       0.67315448      23.45331204
C        3.70849113       2.11466390      19.99424792
C        4.91091784       2.83175346      19.96554435
C        4.96311330       2.11884025      23.48499038
C        6.15238391       2.86983161      23.43649652
16
Lattice="4.920000223338258 0.0 0.0 2.460000111669129 4.260843193416515 0.0 0.0 0.0 43.45000289236738" Properties=species:S:1:pos:R:3 energy=-4067.2044138762194 pbc="T T T"
C       -0.02214238       0.00333148      19.99999393
C        1.20622146       0.72427853      20.01946467
C        1.26105136      -0.00801230      23.44645027
C        2.49783021       0.72781715      23.49480511
C        1.18116711       2.12569709      20.01832699
C        2.42276707       2.80527381      20.00777570
C        2.45126968       2.14203453      23.42566662
C        3.70785481       2.81274763      23.43266934
C        2.43850931       0.02482431      19.99025836
C        3.66447921       0.73474869      20.02478255
C        3.71737101       0.01190309      23.41277561
C        4.95048215       0.67312144      23.45472188
C        3.69714474       2.12148184      19.99175033
C        4.90292975       2.84179939      19.95211190
C        4.96699108       2.11198299      23.49780412
C        6.15607343       2.87147691      23.43064263
16
Lattice="4.920000223338258 0.0 0.0 2.460000111669129 4.260843193416515 0.0 0.0 0.0 43.45000289236738" Properties=species:S:1:pos:R:3 energy=-4067.2632032547194 pbc="T T T"
C       -0.02607627      -0.00040828      20.00064524
C        1.20169809       0.72118684      20.02099672
C        1.26709868      -0.01275538      23.44664926
C        2.49691695       0.72840764      23.49725475
C        1.18075310       2.12628654      20.01955107
C        2.42283050       2.80838548      20.00840910
C        2.45499493       2.14321534      23.42404784
C        3.71228663       2.81267431      23.43154013
C        2.43564166       0.02486955      19.98949772
C        3.66533983       0.73029204      20.02643904
C        3.71800613       0.01386601      23.41038876
C        4.95725743       0.67592573      23.45513950
C        3.69023539       2.12579334      19.99100508
C        4.89967383       2.84715726      19.94851494
C        4.96562250       2.10980338      23.50099725
C        6.15772062       2.86980680      23.42892359
16
Lattice="4.920000223338258 0.0 0.0 2.460000111669129 4.260843193416515 0.0 0.0 0.0 43.45000289236738" Properties=species:S:1:pos:R:3 energy=-4067.3159401411635 pbc="T T T"
C       -0.03013458      -0.00474527      20.00146288
C        1.19687323       0.71743230      20.02234693
C        1.27341674      -0.01788430      23.44700347
C        2.49522794       0.72862752      23.49900092
C        1.18118367       2.12709891      20.02053471
C        2.42347224       2.81272742      20.00897861
C        2.45959699       2.14430505      23.42273278
C        3.71706226       2.81312631      23.43064188
C        2.43275538       0.02438531      19.98882956
C        3.66662361       0.72491642      20.02777968
C        3.71839486       0.01585326      23.40850089
C        4.96433333       0.67977706      23.45552124
C        3.68217690       2.13073575      19.99031158
C        4.89617343       2.85313818      19.94542630
C        4.96328389       2.10780851      23.50358120
C        6.15956011       2.86720417      23.42734736
16
Lattice="4.920000223338258 0.0 0.0 2.460000111669129 4.260843193416515 0.0 0.0 0.0 43.45000289236738" Properties=species:S:1:pos:R:3 energy=-4067.3473975893667 pbc="T T T"
C       -0.03421254      -0.00947189      20.00244507
C        1.19183737       0.71324808      20.02350587
C        1.27983132      -0.02313909      23.44751293
C        2.49300067       0.72847329      23.50001747
C        1.18226273       2.12810379      20.02126027
C        2.42447495       2.81804368      20.00948386
C        2.46492743       2.14527156      23.42173354
C        3.72205815       2.81400121      23.42998515
C        2.42988804       0.02344956      19.98826081
C        3.66810163       0.71900045      20.02878734
C        3.71868484       0.01778696      23.40713785
C        4.97147360       0.68436962      23.45585954
C        3.67333095       2.13601222      19.98967389
C        4.89247739       2.85942873      19.94288096
C        4.96028136       2.10608559      23.50552548
C        6.16158211       2.86384284      23.42592997
16
Lattice="4.920000223338258 0.0 0.0 2.460000111669129 4.260843193416515 0.0 0.0 0.0 43.45000289236738" Properties=species:S:1:pos:R:3 energy=-4067.3167255977582 pbc="T T T"
C       -0.04198948      -0.01906666      20.00487665
C        1.18158716       0.70462942      20.02522251
C        1.29216896      -0.03288546      23.44897888
C        2.48804070       0.72709016      23.49981225
C        1.18546096       2.13053147      20.02187997
C        2.42657325       2.83033172      20.01030755
C        2.47703975       2.14668739      23.42070846
C        3.73213917       2.81654878      23.42942037
C        2.42434560       0.02064541      19.98744840
C        3.67062020       0.70711627      20.02975757
C        3.71955648       0.02112634      23.40605390
C        4.98496799       0.69441266      23.45637604
C        3.65494281       2.14633961      19.98857715
C        4.88472416       2.87153934      19.93953165
C        4.95366935       2.10378353      23.50741566
C        6.16615294       2.85567662      23.42363299
16
Lattice="4.920000223338258 0.0 0.0 2.460000111669129 4.260843193416515 0.0 0.0 0.0 43.45000289236738" Properties=species:S:1:pos:R:3 energy=-4067.541502649098 pbc="T T T"
C        0.00000000       0.00000000      20.00000115
C        1.23000006       0.71014102      20.00000115
C        1.23000006       0.00000000      23.45000125
C        2.46000011       0.71014102      23.45000125
C        1.23000006       2.13042258      20.00000115
C        2.46000011       2.84056360      20.00000115
C        2.46000011       2.13042258      23.45000125
C        3.69000017       2.84056360      23.45000125
C        2.46000011       0.00000000      20.00000115
C        3.69000017       0.71014102      20.00000115
C        3.69000017       0.00000000      23.45000125
C        4.92000022       0.71014102      23.45000125
C        3.69000017       2.13042258      20.00000115
C        4.92000022       2.84056360      20.00000115
C        4.92000022       2.13042258      23.45000125
C        6.15000028       2.84056360      23.45000125
16
Lattice="4.920000223338258 0.0 0.0 2.460000111669129 4.260843193416515 0.0 0.0 0.0 43.45000289236738" Properties=species:S:1:pos:R:3 energy=-4067.5166107635932 pbc="T T T"
C       -0.00486463      -0.00763815      19.99874971
C        1.22288082       0.71511747      19.99486796
C        1.23466573      -0.00043474      23.45077231
C        2.46070498       0.70945345      23.45184692
C        1.23014819       2.13032967      19.99472701
C        2.46080655       2.83876674      19.99962417
C        2.46064466       2.13211570      23.45208842
C        3.69090828       2.84302913      23.45596355
C        2.46190276       0.00418131      19.99746551
C        3.68994022       0.71457352      20.00093939
C        3.68501077      -0.00175891      23.45299839
C        4.91393569       0.70993146      23.44922841
C        3.69433281       2.12739275      20.00201207
C        4.92366311       2.83899544      19.99432611
C        4.93465181       2.12503089      23.44955337
C        6.14066825       2.84542087      23.45483670
16
Lattice="4.920000223338258 0.0 0.0 2.460000111669129 4.260843193416515 0.0 0.0 0.0 43.45000289236738" Properties=species:S:1:pos:R:3 energy=-4067.448655366495 pbc="T T T"
C       -0.00958121      -0.01494096      19.99749696
C        1.21597950       0.71973823      19.98976466
C        1.23900826      -0.00084662      23.45156151
C        2.46134228       0.70894425      23.45368648
C        1.23029564       2.13025570      19.98947235
C        2.46166616       2.83686731      19.99924309
C        2.46122538       2.13389471      23.45419691
C        3.69201472       2.84527053      23.46186743
C        2.46357093       0.00829483      19.99492589
C        3.68987536       0.71871658      20.00186673
C        3.68010354      -0.00333250      23.45598853
C        4.90826245       0.70954131      23.44846815
C        3.69858959       2.12459902      20.00398730
C        4.92722424       2.83765309      19.98869623
C        4.94844049       2.11982858      23.44914477
C        6.13198267       2.85002255      23.45963300
16
Lattice="4.920000223338258 0.0 0.0 2.460000111669129 4.260843193416515 0.0 0.0 0.0 43.45000289236738" Properties=species:S:1:pos:R:3 energy=-4067.3544620727894 pbc="T T T"
C       -0.01400993      -0.02158991      19.99623577
C        1.20949766       0.72367327      19.98471588
C        1.24273689      -0.00122037      23.45238661
C        2.46184255       0.70878108      23.45551499
C        1.23044469       2.13021718      19.98425097
C        2.46262504       2.83477139      19.99884832
C        2.46169854       2.13583176      23.45634880
C        3.69347215       2.84709123      23.46765487
C        2.46479334       0.01227172      19.99237242
C        3.68979905       0.72229294      20.00276639
C        3.67536645      -0.00454397      23.45896521
C        4.90333187       0.70880962      23.44773421
C        3.70269992       2.12226646      20.00588599
C        4.93058210       2.83674468      19.98315054
C        4.96056625       2.11496158      23.44881497
C        6.12455345       2.85414796      23.46435407
16
Lattice="4.920000223338258 0.0 0.0 2.460000111669129 4.260843193416515 0.0 0.0 0.0 43.45000289236738" Properties=species:S:1:pos:R:3 energy=-4067.1322358165726 pbc="T T T"
C       -0.02441034      -0.03512739      19.99234351
C        1.19419026       0.72890111      19.97014668
C        1.24818137      -0.00209283      23.45524547
C        2.46182414       0.71168855      23.46090787
C        1.23093992       2.13035946      19.96893848
C        2.46638873       2.82675717      19.99749555
C        2.46237563       2.14299285      23.46328130
C        3.70071384       2.84866614      23.48377579
C        2.46424799       0.02268844      19.98454579
C        3.68942360       0.72749683      20.00514140
C        3.66314246      -0.00467986      23.46775586
C        4.89553002       0.70351130      23.44584646
C        3.71355257       2.11973429      20.01074390
C        4.93854216       2.83822304      19.96740113
C        4.98096725       2.10329068      23.44867072
C        6.11439042       2.86209682      23.47776009
16
Lattice="4.920000223338258 0.0 0.0 2.460000111669129 4.260843193416515 0.0 0.0 0.0 43.45000289236738" Properties=species:S:1:pos:R:3 energy=-4067.128765956959 pbc="T T T"
C       -0.02663257      -0.03702485      19.99099291
C        1.19084429       0.72801572      19.96556038
C        1.24775761      -0.00233474      23.45637390
C        2.46109355       0.71405212      23.46266983
C        1.23113013       2.13044827      19.96400429
C        2.46796029       2.82351769      19.99695827
C        2.46242364       2.14583943      23.46581192
C        3.70409663       2.84766936      23.48857115
C        2.46239154       0.02543190      19.98185876
C        3.68921673       0.72702104      20.00577271
C        3.66006695      -0.00334852      23.47061722
C        4.89569553       0.70059138      23.44537631
C        3.71651600       2.12065145      20.01196735
C        4.94026479       2.84043179      19.96256482
C        4.98135928       2.10060097      23.44901406
C        6.11581561       2.86294359      23.48188613
16
Lattice="4.920000223338258 0.0 0.0 2.460000111669129 4.260843193416515 0.0 0.0 0.0 43.45000289236738" Properties=species:S:1:pos:R:3 energy=-4067.1622043939087 pbc="T T T"
C       -0.02815013      -0.03758261      19.98960897
C        1.18847452       0.72581947      19.96114360
C        1.24625031      -0.00258447      23.45760963
C        2.45991314       0.71713288      23.46441413
C        1.23133064       2.13050509      19.95918296
C        2.46965709       2.82010500      19.99636155
C        2.46245790       2.14885487      23.46847477
C        3.70786228       2.84591808      23.49300720
C        2.45969748       0.02770877      19.97912524
C        3.68894982       0.72546088      20.00629793
C        3.65765135      -0.00136193      23.47343145
C        4.89723969       0.69715968      23.44501425
C        3.71909094       2.12240905      20.01294102
C        4.94145761       2.84352661      19.95798722
C        4.97852751       2.09861881      23.44960062
C        6.11958984       2.86281641      23.48579945
16
Lattice="4.920000223338258 0.0 0.0 2.460000111669129 4.260843193416515 0.0 0.0 0.0 43.45000289236738" Properties=species:S:1:pos:R:3 energy=-4067.2797748514367 pbc="T T T"
C       -0.02905343      -0.03516671      19.98673079
C        1.18663488       0.71810896      19.95288369
C        1.24060503      -0.00320937      23.46043838
C        2.45612234       0.72514989      23.46785965
C        1.23172896       2.13034762      19.94994907
C        2.47322162       2.81328748      19.99494578
C        2.46274359       2.15506344      23.47422236
C        3.71603066       2.84050189      23.50067900
C        2.45218228       0.03066973      19.97351524
C        3.68818953       0.71969124      20.00696833
C        3.65510140       0.00412241      23.47888439
C        4.90383887       0.68925750      23.44468756
C        3.72298092       2.12787762      20.01403611
C        4.94225573       2.85205200      19.94970743
C        4.96455358       2.09698433      23.45159431
C        6.13286404       2.85976856      23.49289792
16
Lattice="4.920000223338258 0.0 0.0 2.460000111669129 4.260843193416515 0.0 0.0 0.0 43.45000289236738" Properties=species:S:1:pos:R:3 energy=-4067.3256099785335 pbc="T T T"
C       -0.02849586      -0.03259548      19.98523406
C        1.18705981       0.71308034      19.94906596
C        1.23693493      -0.00363839      23.46204438
C        2.45354366       0.72982019      23.46956915
C        1.23190169       2.13005098      19.94557304
C        2.47494953       2.81020127      19.99410357
C        2.46314192       2.15803367      23.47730742
C        3.72008793       2.83712533      23.50387360
C        2.44768120       0.03128553      19.97064373
C        3.68767676       0.71592933      20.00708304
C        3.65506488       0.00729233      23.48150450
C        4.90839020       0.68513893      23.44476012
C        3.72426749       2.13118570      20.01411539
C        4.94191508       2.85718639      19.94604462
C        4.95449543       2.09735927      23.45303399
C        6.14138536       2.85705120      23.49604344
16
Lattice="4.920000223338258 0.0 0.0 2.460000111669129 4.260843193416515 0.0 0.0 0.0 43.45000289236738" Properties=species:S:1:pos:R:3 energy=-4067.3418230652683 pbc="T T T"
C       -0.02734597      -0.02945325      19.98369891
C        1.18825545       0.70767990      19.94546809
C        1.23308757      -0.00417828      23.46378345
C        2.45058782       0.73468574      23.47127782
C        1.23203751       2.12957000      19.94138246
C        2.47652994       2.80755285      19.99315570
C        2.46381240       2.16073588      23.48052521
C        3.72384256       2.83356278      23.50662804
C        2.44297053       0.03130363      19.96773588
C        3.68706813       0.71193780      20.00703054
C        3.65587431       0.01048963      23.48404046
C        4.91334141       0.68119472      23.44501475
C        3.72510845       2.13456461      20.01386092
C        4.94114691       2.86262332      19.94271858
C        4.94330555       2.09846468      23.45477944
C        6.15037744       2.85377257      23.49889974
16
Lattice="4.920000223338258 0.0 0.0 2.460000111669129 4.260843193416515 0.0 0.0 0.0 43.45000289236738" Properties=species:S:1:pos:R:3 energy=-4067.3223391701927 pbc="T T T"
C       -0.02569384      -0.02601484      19.98212646
C        1.19009164       0.70225166      19.94209493
C        1.22938131      -0.00484671      23.46565680
C        2.44735841       0.73952272      23.47299354
C        1.23212238       2.12889478      19.93739600
C        2.47787256       2.80549722      19.99208989
C        2.46482389       2.16302425      23.48386354
C        3.72705081       2.83004817      23.50894458
C        2.43830514       0.03073000      19.96480113
C        3.68636517       0.70799331      20.00679562
C        3.65750502       0.01351473      23.48648196
C        4.91832351       0.67765902      23.44546960
C        3.72550727       2.13777665      20.01326156
C        4.94001663       2.86810390      19.93973751
C        4.93175245       2.10017936      23.45682875
C        6.15921765       2.85017239      23.50145813
28
Lattice="6.508548397816129 0.0 0.0 3.2542741989080644 5.636565626218713 0.0 0.0 0.0 43.410000163430254" Properties=species:S:1:pos:R:3 energy=-7118.144655602268 pbc="T T T"
C       -0.00303012       0.00165324      19.99897272
C        1.85491710       2.14709255      19.99473224
C        2.31993691       0.81257995      20.00999340
C        3.71433695       0.53802334      19.99523177
C        2.79143225       3.22632991      20.00438546
C        4.18716773       2.95432733      19.99367844
C        4.64966786       1.61023850      19.99262970
C        6.05053044       1.34822196      19.99960427
C        4.65418660       5.37337055      20.00254095
C        5.11413747       4.02575281      19.99262040
C        6.50823188       3.75437462      19.99738947
C        6.96872433       2.41222335      20.00104666
C        7.43430928       4.82529589      20.00425111
C        8.82774543       4.56066196      19.99803350
C        0.00598717       0.00046682      23.40673882
C        1.39997878       0.27075369      23.40093163
C        1.85837503       1.61575958      23.41185811
C        3.25101204       1.87473518      23.41469996
C        4.18894821       0.79950461      23.41433882
C        5.58171335       1.07747823      23.40717482
C        2.79080624       4.28616258      23.40805764
C        3.72477761       3.21348861      23.41802622
C        5.11483987       3.49337280      23.40668687
C        6.03822515       2.41512103      23.41184091
C        7.43711775       2.67903475      23.41240116
C        5.57983131       4.83202031      23.41388372
C        6.97088722       5.09987912      23.41817962
C        7.90189658       4.02746210      23.41007165
28
Lattice="6.508548397816129 0.0 0.0 3.2542741989080644 5.636565626218713 0.0 0.0 0.0 43.410000163430254" Properties=species:S:1:pos:R:3 energy=-7118.061420196787 pbc="T T T"
C       -0.00587934       0.00327555      19.99794226
C        1.85042168       2.14719774      19.98959911
C        2.31558246       0.81976029      20.01984591
C        3.70967150       0.53918869      19.99054527
C        2.79332548       3.23146908      20.00865875
C        4.19013191       2.95611285      19.98736943
C        4.65036666       1.61005413      19.98527881
C        6.05697461       1.35400813      19.99916692
C        4.65904327       5.37838006      20.00506228
C        5.11449000       4.02553714      19.98528600
C        6.50780934       3.75106769      19.99480612
C        6.96428444       2.40901862      20.00204039
C        7.43024804       4.81950084      20.00841212
C        8.82263486       4.55860077      19.99610663
C        0.01186372       0.00081696      23.40345416
C        1.40510421       0.27306536      23.39198171
C        1.85723317       1.62081872      23.41369477
C        3.24805625       1.87061894      23.41941735
C        4.19361743       0.79399426      23.41867958
C        5.58460223       1.08101598      23.40439941
C        2.79229101       4.27809179      23.40616730
C        3.73016538       3.20623752      23.42596028
C        5.11581320       3.49724603      23.40347611
C        6.03304593       2.41470296      23.41364412
C        7.43578349       2.67432930      23.41479636
C        5.58089337       4.83277538      23.41770742
C        6.96852133       5.09992956      23.42631072
C        7.90059478       4.02857102      23.41019072
28
Lattice="6.508548397816129 0.0 0.0 3.2542741989080644 5.636565626218713 0.0 0.0 0.0 43.410000163430254" Properties=species:S:1:pos:R:3 energy=-7117.940826146342 pbc="T T T"
C       -0.00838098       0.00484208      19.99692298
C        1.84624322       2.14781801      19.98473870
C        2.31159197       0.82660449      20.02942453
C        3.70533567       0.54027253      19.98602802
C        2.79493460       3.23605789      20.01271166
C        4.19281866       2.95780461      19.98109266
C        4.65105410       1.60990631      19.97797044
C        6.06254648       1.35900365      19.99865680
C        4.66319886       5.38300163      20.00755321
C        5.11498803       4.02560961      19.97805073
C        6.50717660       3.74782286      19.99227244
C        6.96041178       2.40631536      20.00293886
C        7.42613883       4.81420021      20.01240391
C        8.81785650       4.55693888      19.99426842
C        0.01752029       0.00094772      23.40010729
C        1.40992150       0.27530613      23.38325458
C        1.85622428       1.62538382      23.41547984
C        3.24569472       1.86652385      23.42417206
C        4.19787207       0.78887974      23.42301555
C        5.58736033       1.08396447      23.40171081
C        2.79387383       4.27058191      23.40436880
C        3.73512583       3.19928893      23.43370345
C        5.11676526       3.50075173      23.40045980
C        6.02835704       2.41453134      23.41537051
C        7.43423571       2.67027231      23.41717267
C        5.58190921       4.83366990      23.42141044
C        6.96654681       5.09983607      23.43433928
C        7.89936920       4.02924932      23.41040156
28
Lattice="6.508548397816129 0.0 0.0 3.2542741989080644 5.636565626218713 0.0 0.0 0.0 43.410000163430254" Properties=species:S:1:pos:R:3 energy=-7117.8056854343085 pbc="T T T"
C       -0.01039966       0.00632802      19.99592946
C        1.84251085       2.14914884      19.98028206
C        2.30812010       0.83296138      20.03860356
C        3.70146768       0.54124527      19.98176402
C        2.79615986       3.23988609      20.01643973
C        4.19510115       2.95936857      19.97486741
C        4.65171825       1.60980537      19.97072856
C        6.06685299       1.36284848      19.99804246
C        4.66637191       5.38707136      20.01000072
C        5.11567993       4.02608345      19.97096754
C        6.50624613       3.74468075      19.98980859
C        6.95736255       2.40435167      20.00370223
C        7.42198170       4.80961040      20.01615112
C        8.81354906       4.55583629      19.99256498
C        0.02285335       0.00077623      23.39666250
C        1.41430170       0.27744040      23.37484973
C        1.85540898       1.62923771      23.41718441
C        3.24417184       1.86247610      23.42898278
C        4.20154411       0.78432050      23.42734042
C        5.58992859       1.08607607      23.39914401
C        2.79558289       4.26385915      23.40270017
C        3.73947547       3.19278392      23.44116117
C        5.11767849       3.50373786      23.39772533
C        6.02437356       2.41469817      23.41698340
C        7.43239504       2.66712999      23.41951741
C        5.58285051       4.83475044      23.42493550
C        6.96514109       5.09953748      23.44221321
C        7.89826227       4.02933540      23.41074754
4
Lattice="2.4599998470805247 0.0 0.0 1.2299999235402623 2.1304213675679113 0.0 0.0 0.0 43.5999967097199" Properties=species:S:1:pos:R:3 energy=-1015.818568868314 pbc="T T T"
C        0.15574013       0.01120235      19.99176833
C        1.26389110       0.67321143      19.96112338
C       -0.05962031       0.03509780      23.65040803
C        1.20816570       0.60606869      23.59940756
4
Lattice="2.4599998470805247 0.0 0.0 1.2299999235402623 2.1304213675679113 0.0 0.0 0.0 43.5999967097199" Properties=species:S:1:pos:R:3 energy=-1015.3871457107035 pbc="T T T"
C        0.00388110      -0.05955646      19.98280693
C        1.41573841       0.74400844      19.97069322
C       -0.00392557      -0.09493103      23.63469285
C        1.15248289       0.73605931      23.61451966
4
Lattice="2.4599998470805247 0.0 0.0 1.2299999235402623 2.1304213675679113 0.0 0.0 0.0 43.5999967097199" Properties=species:S:1:pos:R:3 energy=-1016.8231505744477 pbc="T T T"
C        0.08619089      -0.02120421      19.98766480
C        1.33343508       0.70563549      19.96550689
C       -0.03411292      -0.02445362      23.64321153
C        1.18266378       0.66560260      23.60632944
4
Lattice="2.4599998470805247 0.0 0.0 1.2299999235402623 2.1304213675679113 0.0 0.0 0.0 43.5999967097199" Properties=species:S:1:pos:R:3 energy=-1016.8687165809582 pbc="T T T"
C        0.09496469      -0.01250766      19.97830951
C        1.32477694       0.69692224      19.97555913
C       -0.04141878      -0.03423528      23.62674711
C        1.18985397       0.67540097      23.62209691
4
Lattice="2.4599998470805247 0.0 0.0 1.2299999235402623 2.1304213675679113 0.0 0.0 0.0 43.5999967097199" Properties=species:S:1:pos:R:3 energy=-1016.868968286259 pbc="T T T"
C        0.09536499      -0.01289862      19.97739961
C        1.32450220       0.69731584      19.97681826
C       -0.04035780      -0.03453090      23.62474943
C        1.18866744       0.67569394      23.62374536
4
Lattice="2.4599998470805247 0.0 0.0 1.2299999235402623 2.1304213675679113 0.0 0.0 0.0 43.5999967097199" Properties=species:S:1:pos:R:3 energy=-1016.8690187633762 pbc="T T T"
C        0.09478149      -0.01281071      19.97707602
C        1.32522821       0.69723315      19.97754562
C       -0.04108547      -0.03443114      23.62366019
C        1.18925260       0.67558896      23.62443083
4
Lattice="2.4599998470805247 0.0 0.0 1.2299999235402623 2.1304213675679113 0.0 0.0 0.0 43.5999967097199" Properties=species:S:1:pos:R:3 energy=-1015.7279008093877 pbc="T T T"
C       -0.02050877       0.05155914      20.04435624
C        1.31019223       0.72775258      19.91509949
C       -0.03939813       0.04998498      23.55467590
C        1.32009594       0.69969874      23.65412533
4
Lattice="2.4599998470805247 0.0 0.0 1.2299999235402623 2.1304213675679113 0.0 0.0 0.0 43.5999967097199" Properties=species:S:1:pos:R:3 energy=-1016.7361235347396 pbc="T T T"
C        0.03303338       0.02958870      20.02568614
C        1.25664677       0.74975442      19.93396405
C        0.03438740       0.01201467      23.56788545
C        1.24631400       0.73763772      23.64072674
4
Lattice="2.4599998470805247 0.0 0.0 1.2299999235402623 2.1304213675679113 0.0 0.0 0.0 43.5999967097199" Properties=species:S:1:pos:R:3 energy=-1016.8617891068537 pbc="T T T"
C        0.02442200       0.03092878      19.97629832
C        1.26525165       0.74837781      19.98402789
C        0.02375440       0.01565853      23.60685362
C        1.25695349       0.73403039      23.60108255
4
Lattice="2.4599998470805247 0.0 0.0 1.2299999235402623 2.1304213675679113 0.0 0.0 0.0 43.5999967097199" Properties=species:S:1:pos:R:3 energy=-1016.8689450205258 pbc="T T T"
C        0.02995270       0.03471952      19.97969296
C        1.25973013       0.74457779      19.98078295
C        0.02546311       0.02023211      23.60427819
C        1.25523561       0.72946609      23.60350827
4
Lattice="2.4599998470805247 0.0 0.0 1.2299999235402623 2.1304213675679113 0.0 0.0 0.0 43.5999967097199" Properties=species:S:1:pos:R:3 energy=-1016.8689820280078 pbc="T T T"
C        0.02998337       0.03458597      19.98041509
C        1.25969643       0.74470873      19.98026159
C        0.02523275       0.01960730      23.60371553
C        1.25546899       0.73009351      23.60387017
4
Lattice="2.4599998470805247 0.0 0.0 1.2299999235402623 2.1304213675679113 0.0 0.0 0.0 43.5999967097199" Properties=species:S:1:pos:R:3 energy=-1016.1911893138462 pbc="T T T"
C        0.00824100       0.01684067      19.89167906
C        1.31733139       0.76130944      20.04595795
C        0.06105695      -0.04233266      23.59576307
C        1.22137762       0.74846381      23.62522279
4
Lattice="2.4599998470805247 0.0 0.0 1.2299999235402623 2.1304213675679113 0.0 0.0 0.0 43.5999967097199" Properties=species:S:1:pos:R:3 energy=-1016.3035165458741 pbc="T T T"
C        0.08526662       0.04686377      19.94310460
C        1.24028968       0.73127698      19.99499469
C       -0.00121172       0.04957408      23.60506108
C        1.28366256       0.65656660      23.61546785
4
Lattice="2.4599998470805247 0.0 0.0 1.2299999235402623 2.1304213675679113 0.0 0.0 0.0 43.5999967097199" Properties=species:S:1:pos:R:3 energy=-1016.8531349343862 pbc="T T T"
C        0.04550179       0.03104174      19.95515057
C        1.28005529       0.74711506      19.98325726
C        0.03341299       0.00220876      23.60717441
C        1.24903706       0.70391588      23.61304598
4
Lattice="2.4599998470805247 0.0 0.0 1.2299999235402623 2.1304213675679113 0.0 0.0 0.0 43.5999967097199" Properties=species:S:1:pos:R:3 energy=-1016.8576227718702 pbc="T T T"
C        0.04731544       0.03625054      19.96648493
C        1.27824175       0.74190215      19.97233605
C        0.02056800      -0.01020765      23.60927519
C        1.26188195       0.71633638      23.61053206
4
Lattice="2.4599998470805247 0.0 0.0 1.2299999235402623 2.1304213675679113 0.0 0.0 0.0 43.5999967097199" Properties=species:S:1:pos:R:3 energy=-1016.868816718851 pbc="T T T"
C        0.04789050       0.03409452      19.96962663
C        1.27768536       0.74409181      19.96973878
C        0.02630318      -0.00201942      23.60961531
C        1.25612809       0.70811452      23.60964751
4
Lattice="2.4599998470805247 0.0 0.0 1.2299999235402623 2.1304213675679113 0.0 0.0 0.0 43.5999967097199" Properties=species:S:1:pos:R:3 energy=-1016.4023791769944 pbc="T T T"
C        0.05626766      -0.00435329      20.10800116
C        1.21870805       0.70882309      20.11310268
C       -0.06382338       0.09407123      23.62887724
C        1.21262547       0.70188001      23.58799699
4
Lattice="2.4599998470805247 0.0 0.0 1.2299999235402623 2.1304213675679113 0.0 0.0 0.0 43.5999967097199" Properties=species:S:1:pos:R:3 energy=-1016.8577554273666 pbc="T T T"
C        0.02255904      -0.00106291      20.10900377
C        1.25248488       0.70551116      20.11169573
C       -0.04881326       0.04211692      23.61848055
C        1.19754715       0.75385586      23.59879802
4
Lattice="2.4599998470805247 0.0 0.0 1.2299999235402623 2.1304213675679113 0.0 0.0 0.0 43.5999967097199" Properties=species:S:1:pos:R:3 energy=-1016.8652957018356 pbc="T T T"
C        0.02282714      -0.00384637      20.11067264
C        1.25232597       0.70823033      20.10924062
C       -0.03649319       0.04317350      23.60288249
C        1.18511789       0.75286357      23.61518232
4
Lattice="2.4599998470805247 0.0 0.0 1.2299999235402623 2.1304213675679113 0.0 0.0 0.0 43.5999967097199" Properties=species:S:1:pos:R:3 energy=-1016.8685186181407 pbc="T T T"
C        0.02236345      -0.00294459      20.10979386
C        1.25284804       0.70730589      20.10983505
C       -0.04070500       0.04300972      23.60915326
C        1.18927131       0.75305001      23.60919590
4
Lattice="2.4599998470805247 0.0 0.0 1.2299999235402623 2.1304213675679113 0.0 0.0 0.0 43.5999967097199" Properties=species:S:1:pos:R:3 energy=-1016.8685307272065 pbc="T T T"
C        0.02289630      -0.00279885      20.10954152
C        1.25240994       0.70711288      20.10956755
C       -0.04073806       0.04282867      23.60947403
C        1.18920962       0.75327834      23.60939497
4
Lattice="2.4599998470805247 0.0 0.0 1.2299999235402623 2.1304213675679113 0.0 0.0 0.0 43.5999967097199" Properties=species:S:1:pos:R:3 energy=-1016.8682016055185 pbc="T T T"
C       -0.02409868       0.00334722      19.94796736
C        1.20458126       0.71173433      19.94868693
C        0.02784939      -0.02920479      23.60693999
C        1.25905462       0.68366750      23.60764335
4
Lattice="2.4599998470805247 0.0 0.0 1.2299999235402623 2.1304213675679113 0.0 0.0 0.0 43.5999967097199" Properties=species:S:1:pos:R:3 energy=-1016.8685484146059 pbc="T T T"
C       -0.02486691       0.00273443      19.94824843
C        1.20531376       0.71236047      19.94878337
C        0.02856341      -0.02768179      23.60685960
C        1.25837633       0.68213115      23.60734623
4
Lattice="2.4599998470805247 0.0 0.0 1.2299999235402623 2.1304213675679113 0.0 0.0 0.0 43.5999967097199" Properties=species:S:1:pos:R:3 energy=-1015.8806494636925 pbc="T T T"
C       -0.04381334       0.13439668      20.00387350
C        1.17895862       0.68942332      20.00969976
C        0.04697960      -0.03691451      23.56532475
C        1.28009192       0.79202081      23.54769614
4
Lattice="2.4599998470805247 0.0 0.0 1.2299999235402623 2.1304213675679113 0.0 0.0 0.0 43.5999967097199" Properties=species:S:1:pos:R:3 energy=-1015.6280763919045 pbc="T T T"
C       -0.05492893      -0.00530572      20.00565484
C        1.19001920       0.82916925      20.00803494
C        0.04952132       0.11459336      23.55981889
C        1.27760539       0.64046938      23.55309076
4
Lattice="2.4599998470805247 0.0 0.0 1.2299999235402623 2.1304213675679113 0.0 0.0 0.0 43.5999967097199" Properties=species:S:1:pos:R:3 energy=-1016.8241207963395 pbc="T T T"
C       -0.04577961       0.03838581      20.00611826
C        1.18077632       0.78552190      20.00735489
C        0.04919576       0.01416114      23.55837122
C        1.27802451       0.74085742      23.55475505
4
Lattice="2.4599998470805247 0.0 0.0 1.2299999235402623 2.1304213675679113 0.0 0.0 0.0 43.5999967097199" Properties=species:S:1:pos:R:3 energy=-1016.8675390083215 pbc="T T T"
C       -0.04757633       0.05495286      20.00534702
C        1.18264041       0.76891797      20.00821194
C        0.04863665       0.02532198      23.56076496
C        1.27851624       0.72973346      23.55227550
4
Lattice="2.4599998470805247 0.0 0.0 1.2299999235402623 2.1304213675679113 0.0 0.0 0.0 43.5999967097199" Properties=species:S:1:pos:R:3 energy=-1016.8693485653484 pbc="T T T"
C       -0.04768295       0.05672400      20.00628881
C        1.18264912       0.76719175      20.00714551
C        0.04854622       0.02247059      23.55783319
C        1.27870458       0.73253993      23.55533191
4
Lattice="2.4599998470805247 0.0 0.0 1.2299999235402623 2.1304213675679113 0.0 0.0 0.0 43.5999967097199" Properties=species:S:1:pos:R:3 energy=-1016.8694066616531 pbc="T T T"
C       -0.04733459       0.05693200      20.00658181
C        1.18216918       0.76702323      20.00672113
C        0.04877648       0.02231441      23.55684434
C        1.27860591       0.73265663      23.55645213
4
Lattice="2.4599998470805247 0.0 0.0 1.2299999235402623 2.1304213675679113 0.0 0.0 0.0 43.5999967097199" Properties=species:S:1:pos:R:3 energy=-1015.9469136732836 pbc="T T T"
C       -0.00650644       0.07882851      20.07166990
C        1.17266105       0.63059218      20.06757338
C       -0.02985823       0.07868762      23.58604450
C        1.25485327       0.71523783      23.56704696
4
Lattice="2.4599998470805247 0.0 0.0 1.2299999235402623 2.1304213675679113 0.0 0.0 0.0 43.5999967097199" Properties=species:S:1:pos:R:3 energy=-1016.8378600961669 pbc="T T T"
C       -0.01648867      -0.00416779      20.07048801
C        1.18261261       0.71355350      20.06843781
C       -0.00824847       0.04212612      23.58203461
C        1.23327418       0.75183431      23.57137432
4
Lattice="2.4599998470805247 0.0 0.0 1.2299999235402623 2.1304213675679113 0.0 0.0 0.0 43.5999967097199" Properties=species:S:1:pos:R:3 energy=-1016.8622410879399 pbc="T T T"
C       -0.02933980       0.00126389      20.07195601
C        1.19549304       0.70814976      20.06721486
C       -0.00374063       0.04280999      23.58880498
C        1.22873705       0.75112252      23.56435890
4
Lattice="2.4599998470805247 0.0 0.0 1.2299999235402623 2.1304213675679113 0.0 0.0 0.0 43.5999967097199" Properties=species:S:1:pos:R:3 energy=-1016.8686627024181 pbc="T T T"
C       -0.03216913      -0.00042339      20.06879296
C        1.19818097       0.70964647      20.06895280
C       -0.00269312       0.04199118      23.57690167
C        1.22783092       0.75213188      23.57768733
4
Lattice="2.4599998470805247 0.0 0.0 1.2299999235402623 2.1304213675679113 0.0 0.0 0.0 43.5999967097199" Properties=species:S:1:pos:R:3 energy=-1015.7317463221555 pbc="T T T"
C        0.09639059      -0.03688518      19.94149865
C        1.17283516       0.73857127      19.91963591
C       -0.03791890       0.06260092      23.55934161
C        1.26927597       0.66832145      23.52990879
4
Lattice="2.4599998470805247 0.0 0.0 1.2299999235402623 2.1304213675679113 0.0 0.0 0.0 43.5999967097199" Properties=species:S:1:pos:R:3 energy=-1016.8061928481934 pbc="T T T"
C        0.02716192      -0.01262248      19.95099580
C        1.24207471       0.71428512      19.90991448
C        0.01123951       0.01073374      23.57120743
C        1.22010668       0.72021208      23.51826725
4
Lattice="2.4599998470805247 0.0 0.0 1.2299999235402623 2.1304213675679113 0.0 0.0 0.0 43.5999967097199" Properties=species:S:1:pos:R:3 energy=-1016.8690160422377 pbc="T T T"
C        0.01922858      -0.00431173      19.93083850
C        1.25005209       0.70593536      19.93069464
C        0.00085735       0.01092514      23.54455349
C        1.23044478       0.72005969      23.54429833
4
Lattice="2.4599998470805247 0.0 0.0 1.2299999235402623 2.1304213675679113 0.0 0.0 0.0 43.5999967097199" Properties=species:S:1:pos:R:3 energy=-1016.8690601246795 pbc="T T T"
C        0.01973142      -0.00433563      19.93071976
C        1.24957273       0.70593590      19.93097167
C        0.00059923       0.01036047      23.54418760
C        1.23067944       0.72064772      23.54450593
4
Lattice="2.4599998470805247 0.0 0.0 1.2299999235402623 2.1304213675679113 0.0 0.0 0.0 43.5999967097199" Properties=species:S:1:pos:R:3 energy=-1014.5775026850458 pbc="T T T"
C       -0.11515875      -0.09169130      19.99345252
C        1.39761448       0.78105944      20.01549446
C       -0.03000288       0.00216112      23.53111102
C        1.27616410       0.66088216      23.57885401
4
Lattice="2.4599998470805247 0.0 0.0 1.2299999235402623 2.1304213675679113 0.0 0.0 0.0 43.5999967097199" Properties=species:S:1:pos:R:3 energy=-1016.7185860699522 pbc="T T T"
C        0.00986586      -0.03022120      19.98871311
C        1.27257822       0.71956438      20.02010569
C        0.01846802      -0.02901000      23.51306358
C        1.22770485       0.69207824      23.59702964
4
Lattice="2.4599998470805247 0.0 0.0 1.2299999235402623 2.1304213675679113 0.0 0.0 0.0 43.5999967097199" Properties=species:S:1:pos:R:3 energy=-1016.7989068641065 pbc="T T T"
C        0.01828954      -0.00009907      19.99916721
C        1.26417195       0.68941722      20.00954138
C       -0.00956002      -0.01330265      23.54240004
C        1.25571547       0.67639591      23.56780339
4
Lattice="2.4599998470805247 0.0 0.0 1.2299999235402623 2.1304213675679113 0.0 0.0 0.0 43.5999967097199" Properties=species:S:1:pos:R:3 energy=-1016.8681752104764 pbc="T T T"
C        0.02885616      -0.00959889      20.00410541
C        1.25360065       0.69893127      20.00444425
C        0.00922293      -0.02434523      23.55572365
C        1.23693720       0.68742427      23.55463869
4
Lattice="2.4599998470805247 0.0 0.0 1.2299999235402623 2.1304213675679113 0.0 0.0 0.0 43.5999967097199" Properties=species:S:1:pos:R:3 energy=-1016.8690933225679 pbc="T T T"
C        0.02641340      -0.01029157      20.00393905
C        1.25607572       0.69965107      20.00446088
C        0.00825233      -0.02387297      23.55477525
C        1.23787549       0.68692489      23.55573683
4
Lattice="2.4599998470805247 0.0 0.0 1.2299999235402623 2.1304213675679113 0.0 0.0 0.0 43.5999967097199" Properties=species:S:1:pos:R:3 energy=-1016.1902894333817 pbc="T T T"
C       -0.07660944       0.00519890      19.99461944
C        1.28175004       0.72946499      19.99375633
C        0.02137236       0.06955385      23.59284235
C        1.19380566       0.70702119      23.61893672
4
Lattice="2.4599998470805247 0.0 0.0 1.2299999235402623 2.1304213675679113 0.0 0.0 0.0 43.5999967097199" Properties=species:S:1:pos:R:3 energy=-1016.8391809367398 pbc="T T T"
C       -0.01408579       0.00492455      19.99483493
C        1.21923523       0.72972250      19.99335499
C       -0.01073997       0.03474263      23.57997251
C        1.22590915       0.74184926      23.63199240
4
Lattice="2.4599998470805247 0.0 0.0 1.2299999235402623 2.1304213675679113 0.0 0.0 0.0 43.5999967097199" Properties=species:S:1:pos:R:3 energy=-1016.8560264160355 pbc="T T T"
C       -0.01326398       0.02112359      19.99446729
C        1.21842518       0.71353815      19.99395969
C       -0.00186299       0.03286421      23.59856814
C        1.21702041       0.74371298      23.61315971
4
Lattice="2.4599998470805247 0.0 0.0 1.2299999235402623 2.1304213675679113 0.0 0.0 0.0 43.5999967097199" Properties=species:S:1:pos:R:3 energy=-1016.8690621655335 pbc="T T T"
C       -0.01225829       0.01223960      19.99434695
C        1.21738517       0.72240641      19.99430279
C       -0.00763910       0.03299914      23.60647301
C        1.22283084       0.74359379      23.60503208
4
Lattice="2.4599998470805247 0.0 0.0 1.2299999235402623 2.1304213675679113 0.0 0.0 0.0 43.40999616153079" Properties=species:S:1:pos:R:3 energy=-1016.5248868680111 pbc="T T T"
C       -0.01600058      -0.02978592      19.99215505
C        1.26139813       0.63530259      20.02897435
C        1.11869133       0.71373747      23.39467038
C        2.43603502       1.43613733      23.45304937
4
Lattice="2.4599998470805247 0.0 0.0 1.2299999235402623 2.1304213675679113 0.0 0.0 0.0 43.40999616153079" Properties=species:S:1:pos:R:3 energy=-1016.8653644105799 pbc="T T T"
C        0.01105307      -0.05326130      19.99782408
C        1.23432138       0.65878230      20.02333619
C        1.16231430       0.71538680      23.40346795
C        2.39243556       1.43448408      23.44422643
4
Lattice="2.4599998470805247 0.0 0.0 1.2299999235402623 2.1304213675679113 0.0 0.0 0.0 43.40999616153079" Properties=species:S:1:pos:R:3 energy=-1016.8811071485446 pbc="T T T"
C        0.00544918      -0.05284313      20.00681403
C        1.23987183       0.65838323      20.01438443
C        1.16550351       0.72549218      23.41783386
C        2.38929980       1.42435961      23.42982234
4
Lattice="2.4599998470805247 0.0 0.0 1.2299999235402623 2.1304213675679113 0.0 0.0 0.0 43.40999616153079" Properties=species:S:1:pos:R:3 energy=-1016.8872159681655 pbc="T T T"
C        0.00791471      -0.05197947      20.01202841
C        1.23734339       0.65757450      20.00920234
C        1.16139941       0.71878819      23.42615990
C        2.39346680       1.43100867      23.42146401
4
Lattice="2.4599998470805247 0.0 0.0 1.2299999235402623 2.1304213675679113 0.0 0.0 0.0 43.40999616153079" Properties=species:S:1:pos:R:3 energy=-1016.8042419280272 pbc="T T T"
C       -0.01625322       0.03806358      19.95548998
C        1.25678465       0.74251381      19.96595457
C        1.24745362       0.72020136      23.42796082
C        2.45077436       1.44536307      23.40233574
4
Lattice="2.4599998470805247 0.0 0.0 1.2299999235402623 2.1304213675679113 0.0 0.0 0.0 43.40999616153079" Properties=species:S:1:pos:R:3 energy=-1016.8869684806291 pbc="T T T"
C        0.00526154       0.03662732      19.95974347
C        1.23522740       0.74390334      19.96213900
C        1.23334859       0.72821862      23.41737802
C        2.46492231       1.43739282      23.41248586
4
Lattice="2.4599998470805247 0.0 0.0 1.2299999235402623 2.1304213675679113 0.0 0.0 0.0 43.40999616153079" Properties=species:S:1:pos:R:3 energy=-1016.8873219565056 pbc="T T T"
C        0.00520062       0.03423033      19.96156958
C        1.23528277       0.74628687      19.96073952
C        1.23470995       0.72740170      23.41302858
C        2.46356649       1.43822319      23.41640867
4
Lattice="2.4599998470805247 0.0 0.0 1.2299999235402623 2.1304213675679113 0.0 0.0 0.0 43.40999616153079" Properties=species:S:1:pos:R:3 energy=-1016.8875603282282 pbc="T T T"
C        0.00525380       0.03518427      19.96105572
C        1.23522690       0.74532374      19.96139921
C        1.23414849       0.72772885      23.41446231
C        2.46413065       1.43790523      23.41482910
4
Lattice="2.4599998470805247 0.0 0.0 1.2299999235402623 2.1304213675679113 0.0 0.0 0.0 43.40999616153079" Properties=species:S:1:pos:R:3 energy=-1016.3434247614514 pbc="T T T"
C        0.03767982       0.04865289      20.05265087
C        1.25088335       0.64909089      19.97627279
C        1.27862699       0.67683919      23.39118161
C        2.42998539       1.41612769      23.43024591
4
Lattice="2.4599998470805247 0.0 0.0 1.2299999235402623 2.1304213675679113 0.0 0.0 0.0 43.40999616153079" Properties=species:S:1:pos:R:3 energy=-1016.3482102914749 pbc="T T T"
C        0.01425538      -0.05671153      20.02805698
C        1.27431356       0.75448444      20.00077855
C        1.19726182       0.70213422      23.40409247
C        2.51134502       1.39080365      23.41742890
4
Lattice="2.4599998470805247 0.0 0.0 1.2299999235402623 2.1304213675679113 0.0 0.0 0.0 43.40999616153079" Properties=species:S:1:pos:R:3 energy=-1016.8571890224111 pbc="T T T"
C        0.02593816      -0.00416150      20.04032375
C        1.26262790       0.70191982      19.98855707
C        1.23784241       0.68951847      23.39765395
C        2.47076732       1.40343400      23.42382212
4
Lattice="2.4599998470805247 0.0 0.0 1.2299999235402623 2.1304213675679113 0.0 0.0 0.0 43.40999616153079" Properties=species:S:1:pos:R:3 energy=-1016.8862577192825 pbc="T T T"
C        0.02716080      -0.00509153      20.00991025
C        1.26137053       0.70284765      20.01875367
C        1.23819812       0.69021031      23.41279002
C        2.47044634       1.40274436      23.40890294
4
Lattice="2.4599998470805247 0.0 0.0 1.2299999235402623 2.1304213675679113 0.0 0.0 0.0 43.40999616153079" Properties=species:S:1:pos:R:3 energy=-1016.8879138041048 pbc="T T T"
C        0.02928067      -0.00617095      20.01406213
C        1.25922881       0.70392506      20.01444999
C        1.23930478       0.69137718      23.41072638
C        2.46936152       1.40157950      23.41111839
4
Lattice="2.4599998470805247 0.0 0.0 1.2299999235402623 2.1304213675679113 0.0 0.0 0.0 43.40999616153079" Properties=species:S:1:pos:R:3 energy=-1016.6059834587195 pbc="T T T"
C       -0.02620441       0.10108410      19.96854003
C        1.25832682       0.75472672      20.05510546
C        1.26332800       0.68483591      23.49406913
C        2.51398651       1.36652893      23.45478293
4
Lattice="2.4599998470805247 0.0 0.0 1.2299999235402623 2.1304213675679113 0.0 0.0 0.0 43.40999616153079" Properties=species:S:1:pos:R:3 energy=-1016.5459283426989 pbc="T T T"
C        0.04206513       0.03896280      19.99727413
C        1.19009598       0.81678454      20.02675260
C        1.28770346       0.65411101      23.48024937
C        2.48957255       1.39731754      23.46822712
4
Lattice="2.4599998470805247 0.0 0.0 1.2299999235402623 2.1304213675679113 0.0 0.0 0.0 43.40999616153079" Properties=species:S:1:pos:R:3 energy=-1016.8487374386965 pbc="T T T"
C        0.00612306       0.07166795      19.98214706
C        1.22601767       0.78411286      20.04168031
C        1.27487044       0.67028679      23.48752591
C        2.50242596       1.38110828      23.46114994
4
Lattice="2.4599998470805247 0.0 0.0 1.2299999235402623 2.1304213675679113 0.0 0.0 0.0 43.40999616153079" Properties=species:S:1:pos:R:3 energy=-1016.8872943369508 pbc="T T T"
C        0.00096509       0.07272606      20.01242689
C        1.23125659       0.78284630      20.01238446
C        1.27362218       0.67075040      23.47358755
C        2.50359327       1.38085312      23.47410431
4
Lattice="2.4599998470805247 0.0 0.0 1.2299999235402623 2.1304213675679113 0.0 0.0 0.0 43.40999616153079" Properties=species:S:1:pos:R:3 energy=-1016.8873023643091 pbc="T T T"
C        0.00112487       0.07272742      20.01238298
C        1.23112738       0.78277564      20.01273225
C        1.27355801       0.67075910      23.47354048
C        2.50362687       1.38091372      23.47384751
4
Lattice="2.4599998470805247 0.0 0.0 1.2299999235402623 2.1304213675679113 0.0 0.0 0.0 43.40999616153079" Properties=species:S:1:pos:R:3 energy=-1016.064673930214 pbc="T T T"
C       -0.00172819      -0.04273494      20.03633803
C        1.12274671       0.74889586      20.03336444
C        1.13119341       0.70432019      23.44269834
C        2.48166829       1.42681242      23.45860186
4
Lattice="2.4599998470805247 0.0 0.0 1.2299999235402623 2.1304213675679113 0.0 0.0 0.0 43.40999616153079" Properties=species:S:1:pos:R:3 energy=-1016.8710619301337 pbc="T T T"
C       -0.04886950      -0.00244764      20.03800982
C        1.16988871       0.70863234      20.03170506
C        1.19290281       0.70392686      23.43506760
C        2.41995820       1.42718197      23.46622017
4
Lattice="2.4599998470805247 0.0 0.0 1.2299999235402623 2.1304213675679113 0.0 0.0 0.0 43.40999616153079" Properties=species:S:1:pos:R:3 energy=-1016.887714208604 pbc="T T T"
C       -0.05482212      -0.00188684      20.03496187
C        1.17586942       0.70807059      20.03478830
C        1.19168856       0.71084882      23.44908155
C        2.42114436       1.42026097      23.45217094
4
Lattice="2.4599998470805247 0.0 0.0 1.2299999235402623 2.1304213675679113 0.0 0.0 0.0 43.40999616153079" Properties=species:S:1:pos:R:3 energy=-1015.6039090094952 pbc="T T T"
C       -0.05878071       0.09425489      19.99743740
C        1.26093983       0.64630912      20.04980071
C        1.18924806       0.75302957      23.41918305
C        2.46083600       1.35077042      23.43656737
4
Lattice="2.4599998470805247 0.0 0.0 1.2299999235402623 2.1304213675679113 0.0 0.0 0.0 43.40999616153079" Properties=species:S:1:pos:R:3 energy=-1015.1732949823839 pbc="T T T"
C        0.08048242      -0.05761417      20.01146683
C        1.12174300       0.79817746      20.03583893
C        1.24742983       0.64260019      23.42442055
C        2.40258811       1.46120090      23.43126772
4
Lattice="2.4599998470805247 0.0 0.0 1.2299999235402623 2.1304213675679113 0.0 0.0 0.0 43.40999616153079" Properties=species:S:1:pos:R:3 energy=-1016.7919404777232 pbc="T T T"
C       -0.02841100      -0.00675920      20.01758551
C        1.23064141       0.74726753      20.02966763
C        1.20687052       0.68373262      23.42592704
C        2.44314243       1.42012343      23.42981384
4
Lattice="2.4599998470805247 0.0 0.0 1.2299999235402623 2.1304213675679113 0.0 0.0 0.0 43.40999616153079" Properties=species:S:1:pos:R:3 energy=-1016.8878280882454 pbc="T T T"
C       -0.01390322       0.01542690      20.02391628
C        1.21612714       0.72511929      20.02324881
C        1.20989589       0.69657355      23.42786738
C        2.44012356       1.40724463      23.42796155
4
Lattice="2.4599998470805247 0.0 0.0 1.2299999235402623 2.1304213675679113 0.0 0.0 0.0 43.40999616153079" Properties=species:S:1:pos:R:3 energy=-1016.8878538030033 pbc="T T T"
C       -0.01390456       0.01520981      20.02336607
C        1.21612669       0.72533575      20.02377625
C        1.21002658       0.69684971      23.42771861
C        2.43999466       1.40696910      23.42813310
4
Lattice="2.4599998470805247 0.0 0.0 1.2299999235402623 2.1304213675679113 0.0 0.0 0.0 43.40999616153079" Properties=species:S:1:pos:R:3 energy=-1016.3746291437853 pbc="T T T"
C        0.06863892      -0.05170280      20.04156636
C        1.19722953       0.71127968      19.95688627
C        1.27322950       0.65665760      23.41905685
C        2.53921110       1.40271602      23.50906062
4
Lattice="2.4599998470805247 0.0 0.0 1.2299999235402623 2.1304213675679113 0.0 0.0 0.0 43.40999616153079" Properties=species:S:1:pos:R:3 energy=-1016.4756303175637 pbc="T T T"
C       -0.02875649      -0.00362537      20.01464282
C        1.29460894       0.66314024      19.98419217
C        1.30925859       0.69604575      23.44940187
C        2.50319826       1.36338985      23.47833883
4
Lattice="2.4599998470805247 0.0 0.0 1.2299999235402623 2.1304213675679113 0.0 0.0 0.0 43.40999616153079" Properties=species:S:1:pos:R:3 energy=-1016.8775627297391 pbc="T T T"
C        0.02285550      -0.02946445      20.00848401
C        1.24302244       0.68896970      19.99051878
C        1.28929371       0.67507230      23.45567792
C        2.52313765       1.38437292      23.47189498
4
Lattice="2.4599998470805247 0.0 0.0 1.2299999235402623 2.1304213675679113 0.0 0.0 0.0 43.40999616153079" Properties=species:S:1:pos:R:3 energy=-1016.8859007059262 pbc="T T T"
C        0.01867886      -0.02386909      20.00188785
C        1.24721636       0.68336284      19.99746738
C        1.29104861       0.67178429      23.46154001
C        2.52136547       1.38767243      23.46568044
4
Lattice="2.4599998470805247 0.0 0.0 1.2299999235402623 2.1304213675679113 0.0 0.0 0.0 43.40999616153079" Properties=species:S:1:pos:R:3 energy=-1016.8866965028474 pbc="T T T"
C        0.01673308      -0.02585943      19.99860632
C        1.24918783       0.68533711      20.00117309
C        1.29153649       0.67668735      23.46433282
C        2.52085189       1.38278544      23.46246347
4
Lattice="2.4599998470805247 0.0 0.0 1.2299999235402623 2.1304213675679113 0.0 0.0 0.0 43.40999616153079" Properties=species:S:1:pos:R:3 energy=-1016.8874250876504 pbc="T T T"
C        0.01790626      -0.02532946      19.99989401
C        1.24802334       0.68480844      20.00005708
C        1.29121250       0.67470114      23.46312087
C        2.52116720       1.38477034      23.46350373
4
Lattice="2.4599998470805247 0.0 0.0 1.2299999235402623 2.1304213675679113 0.0 0.0 0.0 43.40999616153079" Properties=species:S:1:pos:R:3 energy=-1016.6892742393659 pbc="T T T"
C       -0.00893128       0.05315371      20.03629212
C        1.29668535       0.75133045      20.04568784
C        1.25261470       0.73123520      23.50301517
C        2.49962528       1.44020593      23.44738768
4
Lattice="2.4599998470805247 0.0 0.0 1.2299999235402623 2.1304213675679113 0.0 0.0 0.0 43.40999616153079" Properties=species:S:1:pos:R:3 energy=-1016.6043012509689 pbc="T T T"
C        0.07814235       0.03234744      20.03939466
C        1.20960829       0.77213964      20.04274157
C        1.27151650       0.72945825      23.48364347
C        2.48072722       1.44198034      23.46660856
4
Lattice="2.4599998470805247 0.0 0.0 1.2299999235402623 2.1304213675679113 0.0 0.0 0.0 43.40999616153079" Properties=species:S:1:pos:R:3 energy=-1016.8733548973951 pbc="T T T"
C        0.03065281       0.04369515      20.03770320
C        1.25709978       0.76079047      20.04434911
C        1.26120752       0.73042743      23.49420953
C        2.49103424       1.44101262      23.45612642
4
Lattice="2.4599998470805247 0.0 0.0 1.2299999235402623 2.1304213675679113 0.0 0.0 0.0 43.40999616153079" Properties=species:S:1:pos:R:3 energy=-1016.8852092646622 pbc="T T T"
C        0.03051564       0.05044132      20.04003595
C        1.25723298       0.75400647      20.04218095
C        1.26183614       0.73083990      23.48038990
C        2.49040960       1.44063798      23.46978146
4
Lattice="2.4599998470805247 0.0 0.0 1.2299999235402623 2.1304213675679113 0.0 0.0 0.0 43.40999616153079" Properties=species:S:1:pos:R:3 energy=-1016.8867209930929 pbc="T T T"
C        0.02743318       0.04514673      20.04156838
C        1.26030593       0.75927550      20.04086801
C        1.26062334       0.73061755      23.47156835
C        2.49163191       1.44088589      23.47838351
4
Lattice="2.4599998470805247 0.0 0.0 1.2299999235402623 2.1304213675679113 0.0 0.0 0.0 43.40999616153079" Properties=species:S:1:pos:R:3 energy=-1016.8877693116564 pbc="T T T"
C        0.02884494       0.04715362      20.04107631
C        1.25889208       0.75725546      20.04143946
C        1.26111539       0.73067066      23.47476167
C        2.49114193       1.44084594      23.47511082
4
Lattice="2.4599998470805247 0.0 0.0 1.2299999235402623 2.1304213675679113 0.0 0.0 0.0 43.40999616153079" Properties=species:S:1:pos:R:3 energy=-1016.7880205418204 pbc="T T T"
C       -0.01200185       0.03571133      20.02928382
C        1.20104007       0.75995447      20.00605798
C        1.27536945       0.78383910      23.47519601
C        2.47917776       1.47233574      23.39802582
4
Lattice="2.4599998470805247 0.0 0.0 1.2299999235402623 2.1304213675679113 0.0 0.0 0.0 43.40999616153079" Properties=species:S:1:pos:R:3 energy=-1016.8136124401751 pbc="T T T"
C       -0.03014143       0.05149282      20.02122303
C        1.21919536       0.74419093      20.01413957
C        1.24485680       0.75980342      23.44865243
C        2.50967504       1.49635377      23.42455398
4
Lattice="2.4599998470805247 0.0 0.0 1.2299999235402623 2.1304213675679113 0.0 0.0 0.0 43.40999616153079" Properties=species:S:1:pos:R:3 energy=-1016.8869298404641 pbc="T T T"
C       -0.02009306       0.04281651      20.01868168
C        1.20917082       0.75286925      20.01669856
C        1.26068301       0.77248663      23.44028688
C        2.49382500       1.48366854      23.43290189
4
Lattice="2.4599998470805247 0.0 0.0 1.2299999235402623 2.1304213675679113 0.0 0.0 0.0 43.40999616153079" Properties=species:S:1:pos:R:3 energy=-1016.8874626393603 pbc="T T T"
C       -0.02157600       0.04314169      20.01763772
C        1.21069329       0.75254049      20.01779237
C        1.26347026       0.77299595      23.43673347
C        2.49099822       1.48316281      23.43640545
4
Lattice="2.4599998470805247 0.0 0.0 1.2299999235402623 2.1304213675679113 0.0 0.0 0.0 43.40999616153079" Properties=species:S:1:pos:R:3 energy=-1016.8877634612089 pbc="T T T"
C       -0.02015461       0.04259905      20.01740030
C        1.20930531       0.75308088      20.01807107
C        1.26214723       0.77313454      23.43586159
C        2.49228785       1.48302646      23.43723604
4
Lattice="2.4599998470805247 0.0 0.0 1.2299999235402623 2.1304213675679113 0.0 0.0 0.0 43.40999616153079" Properties=species:S:1:pos:R:3 energy=-1016.8877874072265 pbc="T T T"
C       -0.02045030       0.04276742      20.01758798
C        1.20963088       0.75291052      20.01791894
C        1.26215629       0.77298957      23.43640474
C        2.49224889       1.48317342      23.43665734
4
Lattice="2.4599998470805247 0.0 0.0 1.2299999235402623 2.1304213675679113 0.0 0.0 0.0 43.40999616153079" Properties=species:S:1:pos:R:3 energy=-1016.831874544115 pbc="T T T"
C        0.00103557      -0.03003355      19.93271100
C        1.23578420       0.70049633      19.99142854
C        1.25333937       0.71918011      23.45241247
C        2.48589742       1.43089925      23.41106272
4
Lattice="2.4599998470805247 0.0 0.0 1.2299999235402623 2.1304213675679113 0.0 0.0 0.0 43.40999616153079" Properties=species:S:1:pos:R:3 energy=-1016.8868347366774 pbc="T T T"
C        0.00468188      -0.02021641      19.96426168
C        1.23215446       0.69066418      19.96072737
C        1.25458960       0.72009664      23.42954298
C        2.48463063       1.42999772      23.43308271
4
Lattice="2.4599998470805247 0.0 0.0 1.2299999235402623 2.1304213675679113 0.0 0.0 0.0 43.44999821904417" Properties=species:S:1:pos:R:3 energy=-1016.3727159113857 pbc="T T T"
C       -0.02556456      -0.03036452      20.01879094
C        1.29864425       0.75456682      19.91593490
C        1.23121787      -0.06752331      23.47366786
C        2.46953899       0.67603133      23.54175524
4
Lattice="2.4599998470805247 0.0 0.0 1.2299999235402623 2.1304213675679113 0.0 0.0 0.0 43.44999821904417" Properties=species:S:1:pos:R:3 energy=-1016.4776372931807 pbc="T T T"
C        0.05879135       0.04675634      19.98660425
C        1.21430537       0.67741026      19.94878789
C        1.23927777      -0.02906132      23.49669091
C        2.46146259       0.63760518      23.51807141
4
Lattice="2.4599998470805247 0.0 0.0 1.2299999235402623 2.1304213675679113 0.0 0.0 0.0 43.44999821904417" Properties=species:S:1:pos:R:3 energy=-1016.8714023445458 pbc="T T T"
C        0.01376985       0.00710211      19.97918971
C        1.25931220       0.71709467      19.95655872
C        1.23496094      -0.04992756      23.50133267
C        2.46579410       0.65844124      23.51307337
4
Lattice="2.4599998470805247 0.0 0.0 1.2299999235402623 2.1304213675679113 0.0 0.0 0.0 43.44999821904417" Properties=species:S:1:pos:R:3 energy=-1016.8783951259717 pbc="T T T"
C        0.02488540       0.00236575      19.97106111
C        1.24820091       0.72184247      19.96533424
C        1.23523433      -0.05384530      23.50558714
C        2.46551644       0.66234753      23.50817197
4
Lattice="2.4599998470805247 0.0 0.0 1.2299999235402623 2.1304213675679113 0.0 0.0 0.0 43.44999821904417" Properties=species:S:1:pos:R:3 energy=-1016.8833503189735 pbc="T T T"
C        0.02212899       0.00808950      19.96791699
C        1.25094436       0.71614284      19.96905235
C        1.23552813      -0.05018482      23.50707036
C        2.46523560       0.65866294      23.50611476
4
Lattice="2.4599998470805247 0.0 0.0 1.2299999235402623 2.1304213675679113 0.0 0.0 0.0 43.44999821904417" Properties=species:S:1:pos:R:3 energy=-1016.8835397102051 pbc="T T T"
C        0.02148818       0.00721190      19.96889652
C        1.25158696       0.71703751      19.96860261
C        1.23530836      -0.05067504      23.50631749
C        2.46545359       0.65913609      23.50633784
4
Lattice="2.4599998470805247 0.0 0.0 1.2299999235402623 2.1304213675679113 0.0 0.0 0.0 43.44999821904417" Properties=species:S:1:pos:R:3 energy=-1016.3494010616329 pbc="T T T"
C       -0.04769094       0.01729678      20.01709056
C        1.27968967       0.71960485      20.03210259
C        1.15023068       0.05107949      23.39092414
C        2.47835884       0.75310451      23.40952779
4
Lattice="2.4599998470805247 0.0 0.0 1.2299999235402623 2.1304213675679113 0.0 0.0 0.0 43.44999821904417" Properties=species:S:1:pos:R:3 energy=-1016.862552794342 pbc="T T T"
C        0.00035676       0.00957287      20.00985829
C        1.23167858       0.72730937      20.03955102
C        1.19878084       0.04310699      23.38181662
C        2.42977206       0.76109639      23.41841915
4
Lattice="2.4599998470805247 0.0 0.0 1.2299999235402623 2.1304213675679113 0.0 0.0 0.0 43.44999821904417" Properties=species:S:1:pos:R:3 energy=-1016.8777104875536 pbc="T T T"
C        0.00070634       0.01837118      20.02024723
C        1.23128050       0.71851229      20.02870508
C        1.19877366       0.05218884      23.39508318
C        2.42982775       0.75201333      23.40560959
4
Lattice="2.4599998470805247 0.0 0.0 1.2299999235402623 2.1304213675679113 0.0 0.0 0.0 43.44999821904417" Properties=species:S:1:pos:R:3 energy=-1016.8842051645977 pbc="T T T"
C        0.00089570       0.01276692      20.02566352
C        1.23103307       0.72409766      20.02275236
C        1.19931556       0.04642612      23.40235531
C        2.42934391       0.75779492      23.39887389
4
Lattice="2.4599998470805247 0.0 0.0 1.2299999235402623 2.1304213675679113 0.0 0.0 0.0 43.44999821904417" Properties=species:S:1:pos:R:3 energy=-1016.8845209527074 pbc="T T T"
C        0.00096914       0.01352901      20.02398787
C        1.23092118       0.72333974      20.02402913
C        1.19934605       0.04719981      23.40077682
C        2.42935186       0.75701706      23.40085126
4
Lattice="2.4599998470805247 0.0 0.0 1.2299999235402623 2.1304213675679113 0.0 0.0 0.0 43.44999821904417" Properties=species:S:1:pos:R:3 energy=-1016.5042089374117 pbc="T T T"
C        0.02696165      -0.02666998      19.97454495
C        1.20122237       0.58308350      19.96108677
C        1.20653660       0.04683988      23.46501852
C        2.43243829       0.77742773      23.42801698
4
Lattice="2.4599998470805247 0.0 0.0 1.2299999235402623 2.1304213675679113 0.0 0.0 0.0 43.44999821904417" Properties=species:S:1:pos:R:3 energy=-1016.8738421172231 pbc="T T T"
C       -0.00819746      -0.07272350      19.97171450
C        1.23635127       0.62910797      19.96408914
C        1.20479659       0.05743102      23.45585919
C        2.43420852       0.76686564      23.43700440
4
Lattice="2.4599998470805247 0.0 0.0 1.2299999235402623 2.1304213675679113 0.0 0.0 0.0 43.44999821904417" Properties=species:S:1:pos:R:3 energy=-1016.8726433197071 pbc="T T T"
C        0.00570303      -0.08511569      19.96889351
C        1.22238740       0.64146866      19.96723468
C        1.20393420       0.05770026      23.44808780
C        2.43513430       0.76662789      23.44445123
4
Lattice="2.4599998470805247 0.0 0.0 1.2299999235402623 2.1304213675679113 0.0 0.0 0.0 43.44999821904417" Properties=species:S:1:pos:R:3 energy=-1016.883205962582 pbc="T T T"
C       -0.00145278      -0.07873633      19.97034572
C        1.22957584       0.63510552      19.96561539
C        1.20437815       0.05756166      23.45208842
C        2.43465772       0.76675028      23.44061769
4
Lattice="2.4599998470805247 0.0 0.0 1.2299999235402623 2.1304213675679113 0.0 0.0 0.0 43.44999821904417" Properties=species:S:1:pos:R:3 energy=-1016.8850049071696 pbc="T T T"
C       -0.00096229      -0.07679693      19.96829810
C        1.22900458       0.63304388      19.96834753
C        1.20450013       0.05725636      23.44596034
C        2.43461650       0.76717782      23.44606126
4
Lattice="2.4599998470805247 0.0 0.0 1.2299999235402623 2.1304213675679113 0.0 0.0 0.0 43.44999821904417" Properties=species:S:1:pos:R:3 energy=-1016.2216445667823 pbc="T T T"
C       -0.07084726      -0.01834643      20.06071450
C        1.25155149       0.76506881      19.98542301
C        1.26464115      -0.04997367      23.59160886
C        2.46482883       0.66451705      23.41840298
4
Lattice="2.4599998470805247 0.0 0.0 1.2299999235402623 2.1304213675679113 0.0 0.0 0.0 43.44999821904417" Properties=species:S:1:pos:R:3 energy=-1016.4802131227774 pbc="T T T"
C        0.01314884       0.05807768      20.03713979
C        1.16757019       0.68870938      20.00938114
C        1.23348623      -0.04662211      23.53170126
C        2.49596934       0.66110057      23.47793252
4
Lattice="2.4599998470805247 0.0 0.0 1.2299999235402623 2.1304213675679113 0.0 0.0 0.0 43.44999821904417" Properties=species:S:1:pos:R:3 energy=-1016.8801037287644 pbc="T T T"
C       -0.02145292       0.01303295      20.02475894
C        1.20229165       0.73380927      20.02228944
C        1.25138497      -0.04689312      23.50574815
C        2.47795091       0.66131642      23.50335818
4
Lattice="2.4599998470805247 0.0 0.0 1.2299999235402623 2.1304213675679113 0.0 0.0 0.0 43.44999821904417" Properties=species:S:1:pos:R:3 energy=-1016.8847049016622 pbc="T T T"
C       -0.02416311       0.01933576      20.02329903
C        1.20504816       0.72754370      20.02403742
C        1.24942709      -0.04782793      23.50325568
C        2.47986248       0.66221399      23.50556258
4
Lattice="2.4599998470805247 0.0 0.0 1.2299999235402623 2.1304213675679113 0.0 0.0 0.0 43.44999821904417" Properties=species:S:1:pos:R:3 energy=-1016.8848566051273 pbc="T T T"
C       -0.02462974       0.01849183      20.02395360
C        1.20555625       0.72840235      20.02366229
C        1.24951779      -0.04768756      23.50436115
C        2.47973031       0.66205890      23.50417768
4
Lattice="2.4599998470805247 0.0 0.0 1.2299999235402623 2.1304213675679113 0.0 0.0 0.0 43.44999821904417" Properties=species:S:1:pos:R:3 energy=-1016.8821727463368 pbc="T T T"
C       -0.02638100      -0.03236160      20.01178826
C        1.20414745       0.68066805      20.00622199
C        1.23249886      -0.04335246      23.44674796
C        2.46039621       0.67262677      23.45912922
4
Lattice="2.4599998470805247 0.0 0.0 1.2299999235402623 2.1304213675679113 0.0 0.0 0.0 43.44999821904417" Properties=species:S:1:pos:R:3 energy=-1016.8851480390485 pbc="T T T"
C       -0.02611919      -0.03076676      20.00911379
C        1.20394794       0.67908026      20.00911384
C        1.23148363      -0.04024545      23.45281368
C        2.46134914       0.66951269      23.45284612
4
Lattice="2.4599998470805247 0.0 0.0 1.2299999235402623 2.1304213675679113 0.0 0.0 0.0 43.44999821904417" Properties=species:S:1:pos:R:3 energy=-1016.8851493996178 pbc="T T T"
C       -0.02598769      -0.03077427      20.00918295
C        1.20385101       0.67909746      20.00916992
C        1.23140462      -0.04029281      23.45276769
C        2.46139358       0.66955037      23.45276687
4
Lattice="2.4599998470805247 0.0 0.0 1.2299999235402623 2.1304213675679113 0.0 0.0 0.0 43.44999821904417" Properties=species:S:1:pos:R:3 energy=-1016.3503013502681 pbc="T T T"
C       -0.00696623      -0.06450095      20.01881210
C        1.21691395       0.74898828      20.04289795
C        1.29047902       0.05738048      23.49925653
C        2.49707008       0.67849772      23.49513554
4
Lattice="2.4599998470805247 0.0 0.0 1.2299999235402623 2.1304213675679113 0.0 0.0 0.0 43.44999821904417" Properties=species:S:1:pos:R:3 energy=-1016.0437063344332 pbc="T T T"
C       -0.01205274       0.06489773      20.02665144
C        1.22211520       0.61960416      20.03536729
C        1.25835235      -0.03200028      23.49774186
C        2.52908256       0.76786424      23.49634689
4
Lattice="2.4599998470805247 0.0 0.0 1.2299999235402623 2.1304213675679113 0.0 0.0 0.0 43.44999821904417" Properties=species:S:1:pos:R:3 energy=-1016.8756718106742 pbc="T T T"
C       -0.00923277      -0.00684051      20.02230600
C        1.21923172       0.69133440      20.03954295
C        1.27616334       0.01755223      23.49858244
C        2.51133508       0.71831972      23.49567610
4
Lattice="2.4599998470805247 0.0 0.0 1.2299999235402623 2.1304213675679113 0.0 0.0 0.0 43.44999821904417" Properties=species:S:1:pos:R:3 energy=-1016.8764647504001 pbc="T T T"
C       -0.01109047      -0.01545586      20.02839146
C        1.22115436       0.69994894      20.03367347
C        1.28088375       0.00507571      23.49744825
C        2.50654973       0.73079705      23.49659430
4
Lattice="2.4599998470805247 0.0 0.0 1.2299999235402623 2.1304213675679113 0.0 0.0 0.0 43.44999821904417" Properties=species:S:1:pos:R:3 energy=-1016.8849575593615 pbc="T T T"
C       -0.00999751      -0.01274176      20.03091641
C        1.22016755       0.69718930      20.03149060
C        1.27859414       0.01307758      23.49688262
C        2.50873320       0.72284073      23.49681784
4
Lattice="2.4599998470805247 0.0 0.0 1.2299999235402623 2.1304213675679113 0.0 0.0 0.0 43.44999821904417" Properties=species:S:1:pos:R:3 energy=-1016.2328770178714 pbc="T T T"
C       -0.08830635      -0.03629553      19.92590934
C        1.24311966       0.74556356      19.93250790
C        1.15386133       0.02738858      23.49626211
C        2.43093606       0.82446674      23.47060856
4
Lattice="2.4599998470805247 0.0 0.0 1.2299999235402623 2.1304213675679113 0.0 0.0 0.0 43.44999821904417" Properties=species:S:1:pos:R:3 energy=-1016.8733015630827 pbc="T T T"
C       -0.03435299      -0.00085697      19.92746132
C        1.18917083       0.71012671      19.93130802
C        1.17974280       0.06359256      23.49069279
C        2.40505006       0.78826104      23.47582579
4
Lattice="2.4599998470805247 0.0 0.0 1.2299999235402623 2.1304213675679113 0.0 0.0 0.0 43.44999821904417" Properties=species:S:1:pos:R:3 energy=-1016.8830350750915 pbc="T T T"
C       -0.03755503      -0.00020777      19.93003967
C        1.19236569       0.70942328      19.93008211
C        1.17718454       0.07100061      23.48258215
C        2.40761549       0.78090723      23.48258398
4
Lattice="2.4599998470805247 0.0 0.0 1.2299999235402623 2.1304213675679113 0.0 0.0 0.0 43.44999821904417" Properties=species:S:1:pos:R:3 energy=-1016.0597394178639 pbc="T T T"
C       -0.06532505      -0.14172281      19.96796808
C        1.22800880       0.70584062      20.01146186
C        1.20777063       0.06379026      23.43736540
C        2.46219490       0.79142943      23.57005631
4
Lattice="2.4599998470805247 0.0 0.0 1.2299999235402623 2.1304213675679113 0.0 0.0 0.0 43.44999821904417" Properties=species:S:1:pos:R:3 energy=-1015.8365349123974 pbc="T T T"
C       -0.01852207       0.03072656      19.98088891
C        1.18119036       0.53333976      19.99921040
C        1.23287644       0.08229838      23.48265242
C        2.43710477       0.77297301      23.52410536
4
Lattice="2.4599998470805247 0.0 0.0 1.2299999235402623 2.1304213675679113 0.0 0.0 0.0 43.44999821904417" Properties=species:S:1:pos:R:3 energy=-1016.8494882007774 pbc="T T T"
C       -0.01755137      -0.07158476      19.98557313
C        1.18025717       0.63561749      19.99475671
C        1.22243177       0.07442227      23.49151891
C        2.44751193       0.78088270      23.51500836
4
Lattice="2.4599998470805247 0.0 0.0 1.2299999235402623 2.1304213675679113 0.0 0.0 0.0 43.44999821904417" Properties=species:S:1:pos:R:3 energy=-1016.8811192576104 pbc="T T T"
C       -0.03656744      -0.07607012      19.99207651
C        1.19926528       0.64003729      19.98887559
C        1.21964979       0.07241943      23.50879804
C        2.45030187       0.78295109      23.49710696
4
Lattice="2.4599998470805247 0.0 0.0 1.2299999235402623 2.1304213675679113 0.0 0.0 0.0 43.44999821904417" Properties=species:S:1:pos:R:3 energy=-1016.8843357792401 pbc="T T T"
C       -0.03365982      -0.07307114      19.99081009
C        1.19639442       0.63691304      19.99101479
C        1.22041484       0.07301113      23.50236718
C        2.44950007       0.78248468      23.50266504
4
Lattice="2.4599998470805247 0.0 0.0 1.2299999235402623 2.1304213675679113 0.0 0.0 0.0 43.44999821904417" Properties=species:S:1:pos:R:3 energy=-1016.8843725146083 pbc="T T T"
C       -0.03358318      -0.07305043      19.99107707
C        1.19633164       0.63683955      19.99115246
C        1.22001448       0.07285830      23.50228858
C        2.44988656       0.78269028      23.50233899
4
Lattice="2.4599998470805247 0.0 0.0 1.2299999235402623 2.1304213675679113 0.0 0.0 0.0 43.44999821904417" Properties=species:S:1:pos:R:3 energy=-1016.347220069216 pbc="T T T"
C        0.02574165       0.00790188      20.01317520
C        1.21704026       0.73343405      20.02595731
C        1.26909020       0.02174679      23.47380074
C        2.49411108       0.58878512      23.47632748
4
Lattice="2.4599998470805247 0.0 0.0 1.2299999235402623 2.1304213675679113 0.0 0.0 0.0 43.44999821904417" Properties=species:S:1:pos:R:3 energy=-1016.876193725017 pbc="T T T"
C        0.00652730       0.01551070      20.00519920
C        1.23624871       0.72580897      20.03381746
C        1.26573565      -0.04569380      23.47257451
C        2.49747154       0.65624197      23.47766956
4
Lattice="2.4599998470805247 0.0 0.0 1.2299999235402623 2.1304213675679113 0.0 0.0 0.0 43.44999821904417" Properties=species:S:1:pos:R:3 energy=-1016.8845151022598 pbc="T T T"
C        0.00497800       0.01613426      20.02098554
C        1.23788297       0.72524796      20.01835599
C        1.26493284      -0.04993584      23.47519902
C        2.49818939       0.66042146      23.47472018
4
Lattice="2.4599998470805247 0.0 0.0 1.2299999235402623 2.1304213675679113 0.0 0.0 0.0 43.44999821904417" Properties=species:S:1:pos:R:3 energy=-1015.9563716700306 pbc="T T T"
C        0.06247096      -0.00969437      19.91297085
C        1.19433239       0.61862600      20.07550870
C        1.26085349      -0.04251716      23.36612183
C        2.39656826       0.68637022      23.40225849
4
Lattice="2.4599998470805247 0.0 0.0 1.2299999235402623 2.1304213675679113 0.0 0.0 0.0 43.44999821904417" Properties=species:S:1:pos:R:3 energy=-1016.753620726679 pbc="T T T"
C        0.00263579      -0.05304096      19.93675499
C        1.25416394       0.66193843      20.05159982
C        1.21312594      -0.03802374      23.37171057
C        2.44429946       0.68191104      23.39680002
4
Lattice="2.4599998470805247 0.0 0.0 1.2299999235402623 2.1304213675679113 0.0 0.0 0.0 43.44999821904417" Properties=species:S:1:pos:R:3 energy=-1016.8629771558734 pbc="T T T"
C        0.01556736      -0.05535763      19.97861174
C        1.24119104       0.66422304      20.00943126
C        1.20661404      -0.02642742      23.38101086
C        2.45085268       0.67034678      23.38781153
4
Lattice="2.4599998470805247 0.0 0.0 1.2299999235402623 2.1304213675679113 0.0 0.0 0.0 43.44999821904417" Properties=species:S:1:pos:R:3 energy=-1016.8736489163978 pbc="T T T"
C        0.01078249      -0.04717722      20.00394141
C        1.24591006       0.65603248      19.98365759
C        1.21908980      -0.03792681      23.38682082
C        2.43844278       0.68185632      23.38244557
4
Lattice="2.4599998470805247 0.0 0.0 1.2299999235402623 2.1304213675679113 0.0 0.0 0.0 43.44999821904417" Properties=species:S:1:pos:R:3 energy=-1016.8847412288596 pbc="T T T"
C        0.01349180      -0.05054367      19.99374351
C        1.24317466       0.65939636      19.99371555
C        1.21400284      -0.03316607      23.38469405
C        2.44355583       0.67709814      23.38471229
4
Lattice="2.4599998470805247 0.0 0.0 1.2299999235402623 2.1304213675679113 0.0 0.0 0.0 43.44999821904417" Properties=species:S:1:pos:R:3 energy=-1016.8847470793072 pbc="T T T"
C        0.01318244      -0.05022370      19.99352897
C        1.24342746       0.65906919      19.99361071
C        1.21378151      -0.03275921      23.38484571
C        2.44383371       0.67669849      23.38488000
4
Lattice="2.4108001253110625 0.0 0.0 1.2054000626555312 2.087813178522513 0.0 0.0 0.0 43.000002587498614" Properties=species:S:1:pos:R:3 energy=-1016.6822149261067 pbc="T T T"
C        0.00000000       0.00000000      20.00000097
C        1.20540006       0.69593797      20.00000097
C        1.20540006       0.69593797      23.00000113
C        2.41080013       1.39187618      23.00000113
4
Lattice="2.4108001253110625 0.0 0.0 1.2054000626555312 2.087813178522513 0.0 0.0 0.0 43.10000257669652" Properties=species:S:1:pos:R:3 energy=-1016.7073366117482 pbc="T T T"
C        0.00000000       0.00000000      20.00000097
C        1.20540006       0.69593797      20.00000097
C        1.20540006       0.69593797      23.10000112
C        2.41080013       1.39187618      23.10000112
4
Lattice="2.4599998470805247 0.0 0.0 1.2053999250694571 2.0878141702164768 0.0 0.0 0.0 42.99999782701727" Properties=species:S:1:pos:R:3 energy=-1016.676454684313 pbc="T T T"
C        0.00000000       0.00000000      19.99999875
C        1.22180001       0.69593789      19.99999875
C        0.00000000       0.00000000      22.99999858
C        1.22180001       0.69593789      22.99999858
4
Lattice="2.4599998470805247 0.0 0.0 1.2053999250694571 2.0878141702164768 0.0 0.0 0.0 43.4299984202874" Properties=species:S:1:pos:R:3 energy=-1016.7885029996563 pbc="T T T"
C        0.00000000       0.00000000      19.99999875
C        1.22180001       0.69593789      19.99999875
C        0.00000000       0.00000000      23.42999844
C        1.22180001       0.69593789      23.42999844
4
Lattice="2.4599998470805247 0.0 0.0 1.2053999250694571 2.0878141702164768 0.0 0.0 0.0 43.299997268368585" Properties=species:S:1:pos:R:3 energy=-1016.7757773238777 pbc="T T T"
C        0.00000000       0.00000000      19.99999875
C        1.22180001       0.69593789      19.99999875
C        0.00000000       0.00000000      23.29999851
C        1.22180001       0.69593789      23.29999851
4
Lattice="2.4599998470805247 0.0 0.0 1.2053999250694571 2.0878141702164768 0.0 0.0 0.0 43.4299984202874" Properties=species:S:1:pos:R:3 energy=-1016.808510985985 pbc="T T T"
C        0.00000000       0.00000000      19.99999875
C        1.22180001       0.69593789      19.99999875
C        1.22999992       0.00000000      23.42999844
C        2.45179993       0.69593789      23.42999844
4
Lattice="2.4599998470805247 0.0 0.0 1.2053999250694571 2.0878141702164768 0.0 0.0 0.0 43.299997268368585" Properties=species:S:1:pos:R:3 energy=-1016.8052624909791 pbc="T T T"
C        0.00000000       0.00000000      19.99999875
C        1.22180001       0.69593789      19.99999875
C        1.22999992       0.00000000      23.29999851
C        2.45179993       0.69593789      23.29999851
4
Lattice="2.4599998470805247 0.0 0.0 1.2176999243048596 2.1091177688921943 0.0 0.0 0.0 43.4299984202874" Properties=species:S:1:pos:R:3 energy=-1016.8638686008088 pbc="T T T"
C        0.00000000       0.00000000      19.99999875
C        1.22589984       0.70303942      19.99999875
C        1.22589984       0.70303942      23.42999844
C        2.45179993       1.40607884      23.42999844
4
Lattice="2.4599998470805247 0.0 0.0 1.2176999243048596 2.1091177688921943 0.0 0.0 0.0 43.299997268368585" Properties=species:S:1:pos:R:3 energy=-1016.8615784907427 pbc="T T T"
C        0.00000000       0.00000000      19.99999875
C        1.22589984       0.70303942      19.99999875
C        1.22589984       0.70303942      23.29999851
C        2.45179993       1.40607884      23.29999851
4
Lattice="2.4599998470805247 0.0 0.0 1.2176999243048596 2.1091177688921943 0.0 0.0 0.0 43.4299984202874" Properties=species:S:1:pos:R:3 energy=-1016.841777855159 pbc="T T T"
C        0.00000000       0.00000000      19.99999875
C        1.22589984       0.70303942      19.99999875
C        0.00000000       0.00000000      23.42999844
C        1.22589984       0.70303942      23.42999844
4
Lattice="2.4599998470805247 0.0 0.0 1.2176999243048596 2.1091177688921943 0.0 0.0 0.0 43.299997268368585" Properties=species:S:1:pos:R:3 energy=-1016.8286048242298 pbc="T T T"
C        0.00000000       0.00000000      19.99999875
C        1.22589984       0.70303942      19.99999875
C        0.00000000       0.00000000      23.29999851
C        1.22589984       0.70303942      23.29999851
4
Lattice="2.4599998470805247 0.0 0.0 1.2176999243048596 2.1091177688921943 0.0 0.0 0.0 43.4299984202874" Properties=species:S:1:pos:R:3 energy=-1016.8616885607903 pbc="T T T"
C        0.00000000       0.00000000      19.99999875
C        1.22589984       0.70303942      19.99999875
C        1.22999992       0.00000000      23.42999844
C        2.45589977       0.70303942      23.42999844
4
Lattice="2.4599998470805247 0.0 0.0 1.2176999243048596 2.1091177688921943 0.0 0.0 0.0 43.299997268368585" Properties=species:S:1:pos:R:3 energy=-1016.858268770123 pbc="T T T"
C        0.00000000       0.00000000      19.99999875
C        1.22589984       0.70303942      19.99999875
C        1.22999992       0.00000000      23.29999851
C        2.45589977       0.70303942      23.29999851
4
Lattice="2.4599998470805247 0.0 0.0 1.2299999235402623 2.1304213675679113 0.0 0.0 0.0 43.299997268368585" Properties=species:S:1:pos:R:3 energy=-1016.8853762065022 pbc="T T T"
C        0.00000000       0.00000000      19.99999875
C        1.22999992       0.71014070      19.99999875
C        1.22999992       0.71014070      23.29999851
C        2.45999985       1.42028165      23.29999851
4
Lattice="2.4599998470805247 0.0 0.0 1.2299999235402623 2.1304213675679113 0.0 0.0 0.0 43.4299984202874" Properties=species:S:1:pos:R:3 energy=-1016.86547039892 pbc="T T T"
C        0.00000000       0.00000000      19.99999875
C        1.22999992       0.71014070      19.99999875
C        0.00000000       0.00000000      23.42999844
C        1.22999992       0.71014070      23.42999844
4
Lattice="2.4599998470805247 0.0 0.0 1.2299999235402623 2.1304213675679113 0.0 0.0 0.0 43.299997268368585" Properties=species:S:1:pos:R:3 energy=-1016.8518781766222 pbc="T T T"
C        0.00000000       0.00000000      19.99999875
C        1.22999992       0.71014070      19.99999875
C        0.00000000       0.00000000      23.29999851
C        1.22999992       0.71014070      23.29999851
4
Lattice="2.4599998470805247 0.0 0.0 1.2299999235402623 2.1304213675679113 0.0 0.0 0.0 43.299997268368585" Properties=species:S:1:pos:R:3 energy=-1016.8812964037193 pbc="T T T"
C        0.00000000       0.00000000      19.99999875
C        1.22999992       0.71014070      19.99999875
C        1.22999992       0.00000000      23.29999851
C        2.45999985       0.71014070      23.29999851
4
Lattice="2.4846002371424643 0.0 0.0 1.2054013204494294 2.087814548471287 0.0 0.0 0.0 43.300002911965194" Properties=species:S:1:pos:R:3 energy=-1016.8059936608635 pbc="T T T"
C        0.00000000       0.00000000      20.00000179
C        1.23000011       0.69593802      20.00000179
C        1.23000011       0.69593802      23.30000211
C        2.46000021       1.39187628      23.30000211
4
Lattice="2.4846002371424643 0.0 0.0 1.2054013204494294 2.087814548471287 0.0 0.0 0.0 43.300002911965194" Properties=species:S:1:pos:R:3 energy=-1016.7718250064282 pbc="T T T"
C        0.00000000       0.00000000      20.00000179
C        1.23000011       0.69593802      20.00000179
C        0.00000000       0.00000000      23.30000211
C        1.23000011       0.69593802      23.30000211
4
Lattice="2.4599998470805247 0.0 0.0 1.2053999250694571 2.0878141702164768 0.0 0.0 0.0 42.99999782701727" Properties=species:S:1:pos:R:3 energy=-1016.7520402895042 pbc="T T T"
C        0.00000000       0.00000000      19.99999875
C        1.22180001       0.69593789      19.99999875
C        1.22999992       0.00000000      22.99999858
C        2.45179993       0.69593789      22.99999858
4
Lattice="2.4846002371424643 0.0 0.0 1.2054013204494294 2.087814548471287 0.0 0.0 0.0 43.4300046501732" Properties=species:S:1:pos:R:3 energy=-1016.8062320325862 pbc="T T T"
C        0.00000000       0.00000000      20.00000179
C        1.23000011       0.69593802      20.00000179
C        1.24230012       0.00000000      23.43000236
C        2.47230022       0.69593802      23.43000236
4
Lattice="2.4846002371424643 0.0 0.0 1.2054013204494294 2.087814548471287 0.0 0.0 0.0 43.300002911965194" Properties=species:S:1:pos:R:3 energy=-1016.8027040766681 pbc="T T T"
C        0.00000000       0.00000000      20.00000179
C        1.23000011       0.69593802      20.00000179
C        1.24230012       0.00000000      23.30000211
C        2.47230022       0.69593802      23.30000211
4
Lattice="2.4846002371424643 0.0 0.0 1.2177000916232845 2.1091175109045466 0.0 0.0 0.0 43.4300046501732" Properties=species:S:1:pos:R:3 energy=-1016.8609680033456 pbc="T T T"
C        0.00000000       0.00000000      20.00000179
C        1.23410019       0.70303950      20.00000179
C        1.23410019       0.70303950      23.43000236
C        2.46820014       1.40607900      23.43000236
4
Lattice="2.4846002371424643 0.0 0.0 1.2177000916232845 2.1091175109045466 0.0 0.0 0.0 43.300002911965194" Properties=species:S:1:pos:R:3 energy=-1016.8584214259865 pbc="T T T"
C        0.00000000       0.00000000      20.00000179
C        1.23410019       0.70303950      20.00000179
C        1.23410019       0.70303950      23.30000211
C        2.46820014       1.40607900      23.30000211
4
Lattice="2.4846002371424643 0.0 0.0 1.2177000916232845 2.1091175109045466 0.0 0.0 0.0 43.4300046501732" Properties=species:S:1:pos:R:3 energy=-1016.8379452677984 pbc="T T T"
C        0.00000000       0.00000000      20.00000179
C        1.23410019       0.70303950      20.00000179
C        0.00000000       0.00000000      23.43000236
C        1.23410019       0.70303950      23.43000236
4
Lattice="2.4846002371424643 0.0 0.0 1.2177000916232845 2.1091175109045466 0.0 0.0 0.0 43.4300046501732" Properties=species:S:1:pos:R:3 energy=-1016.858668505352 pbc="T T T"
C        0.00000000       0.00000000      20.00000179
C        1.23410019       0.70303950      20.00000179
C        1.24230012       0.00000000      23.43000236
C        2.47640031       0.70303950      23.43000236
4
Lattice="2.4846002371424643 0.0 0.0 1.2177000916232845 2.1091175109045466 0.0 0.0 0.0 43.300002911965194" Properties=species:S:1:pos:R:3 energy=-1016.8550161934096 pbc="T T T"
C        0.00000000       0.00000000      20.00000179
C        1.23410019       0.70303950      20.00000179
C        1.24230012       0.00000000      23.30000211
C        2.47640031       0.70303950      23.30000211
4
Lattice="2.4846002371424643 0.0 0.0 1.230001347397377 2.130422957938043 0.0 0.0 0.0 43.300002911965194" Properties=species:S:1:pos:R:3 energy=-1016.8817719226523 pbc="T T T"
C        0.00000000       0.00000000      20.00000179
C        1.23820003       0.71014099      20.00000179
C        1.23820003       0.71014099      23.30000211
C        2.47640031       1.42028172      23.30000211
4
Lattice="2.4846002371424643 0.0 0.0 1.230001347397377 2.130422957938043 0.0 0.0 0.0 43.300002911965194" Properties=species:S:1:pos:R:3 energy=-1016.8783279138534 pbc="T T T"
C        0.00000000       0.00000000      20.00000179
C        1.23820003       0.71014099      20.00000179
C        1.24230012       0.00000000      23.30000211
C        2.48050015       0.71014099      23.30000211
4
Lattice="2.4846002371424643 0.0 0.0 1.2423001185712321 2.1517259203713026 0.0 0.0 0.0 43.4300046501732" Properties=species:S:1:pos:R:3 energy=-1016.8806720385165 pbc="T T T"
C        0.00000000       0.00000000      20.00000179
C        1.24230012       0.71724222      20.00000179
C        1.24230012       0.71724222      23.43000236
C        2.48460024       1.43448469      23.43000236
4
Lattice="2.4846002371424643 0.0 0.0 1.2423001185712321 2.1517259203713026 0.0 0.0 0.0 43.4300046501732" Properties=species:S:1:pos:R:3 energy=-1016.8574457618181 pbc="T T T"
C        0.00000000       0.00000000      20.00000179
C        1.24230012       0.71724222      20.00000179
C        0.00000000       0.00000000      23.43000236
C        1.24230012       0.71724222      23.43000236
4
Lattice="2.4846002371424643 0.0 0.0 1.2423001185712321 2.1517259203713026 0.0 0.0 0.0 43.300002911965194" Properties=species:S:1:pos:R:3 energy=-1016.8429909386517 pbc="T T T"
C        0.00000000       0.00000000      20.00000179
C        1.24230012       0.71724222      20.00000179
C        0.00000000       0.00000000      23.30000211
C        1.24230012       0.71724222      23.30000211
4
Lattice="2.4846002371424643 0.0 0.0 1.2423001185712321 2.1517259203713026 0.0 0.0 0.0 43.300002911965194" Properties=species:S:1:pos:R:3 energy=-1016.8736687807079 pbc="T T T"
C        0.00000000       0.00000000      20.00000179
C        1.24230012       0.71724222      20.00000179
C        1.24230012       0.00000000      23.30000211
C        2.48460024       0.71724222      23.30000211
4
Lattice="2.4599998470805247 0.0 0.0 1.2053999250694571 2.0878141702164768 0.0 0.0 0.0 43.099996820801096" Properties=species:S:1:pos:R:3 energy=-1016.779919032559 pbc="T T T"
C        0.00000000       0.00000000      19.99999875
C        1.22180001       0.69593789      19.99999875
C        1.22999992       0.00000000      23.09999856
C        2.45179993       0.69593789      23.09999856
4
Lattice="2.509200098027195 0.0 0.0 1.2053996534914804 2.0878150703649 0.0 0.0 0.0 43.43000060268459" Properties=species:S:1:pos:R:3 energy=-1016.7802872025826 pbc="T T T"
C        0.00000000       0.00000000      20.00000068
C        1.23820017       0.69593794      20.00000068
C        1.23820017       0.69593794      23.43000093
C        2.47640009       1.39187613      23.43000093
4
Lattice="2.509200098027195 0.0 0.0 1.2053996534914804 2.0878150703649 0.0 0.0 0.0 43.300001454805894" Properties=species:S:1:pos:R:3 energy=-1016.777628650379 pbc="T T T"
C        0.00000000       0.00000000      20.00000068
C        1.23820017       0.69593794      20.00000068
C        1.23820017       0.69593794      23.30000103
C        2.47640009       1.39187613      23.30000103
4
Lattice="2.509200098027195 0.0 0.0 1.2053996534914804 2.0878150703649 0.0 0.0 0.0 43.43000060268459" Properties=species:S:1:pos:R:3 energy=-1016.7570690892993 pbc="T T T"
C        0.00000000       0.00000000      20.00000068
C        1.23820017       0.69593794      20.00000068
C        0.00000000       0.00000000      23.43000093
C        1.23820017       0.69593794      23.43000093
4
Lattice="2.509200098027195 0.0 0.0 1.2053996534914804 2.0878150703649 0.0 0.0 0.0 43.300001454805894" Properties=species:S:1:pos:R:3 energy=-1016.7418637761662 pbc="T T T"
C        0.00000000       0.00000000      20.00000068
C        1.23820017       0.69593794      20.00000068
C        0.00000000       0.00000000      23.30000103
C        1.23820017       0.69593794      23.30000103
4
Lattice="2.509200098027195 0.0 0.0 1.2053996534914804 2.0878150703649 0.0 0.0 0.0 43.43000060268459" Properties=species:S:1:pos:R:3 energy=-1016.7783428131486 pbc="T T T"
C        0.00000000       0.00000000      20.00000068
C        1.23820017       0.69593794      20.00000068
C        1.25460005       0.00000000      23.43000093
C        2.49280022       0.69593794      23.43000093
4
Lattice="2.509200098027195 0.0 0.0 1.2053996534914804 2.0878150703649 0.0 0.0 0.0 43.300001454805894" Properties=species:S:1:pos:R:3 energy=-1016.7746226088033 pbc="T T T"
C        0.00000000       0.00000000      20.00000068
C        1.23820017       0.69593794      20.00000068
C        1.25460005       0.00000000      23.30000103
C        2.49280022       0.69593794      23.30000103
4
Lattice="2.509200098027195 0.0 0.0 1.2176997523720097 2.109118179197151 0.0 0.0 0.0 43.43000060268459" Properties=species:S:1:pos:R:3 energy=-1016.8323812200827 pbc="T T T"
C        0.00000000       0.00000000      20.00000068
C        1.24229995       0.70303948      20.00000068
C        1.24229995       0.70303948      23.43000093
C        2.48460015       1.40607895      23.43000093
4
Lattice="2.509200098027195 0.0 0.0 1.2176997523720097 2.109118179197151 0.0 0.0 0.0 43.300001454805894" Properties=species:S:1:pos:R:3 energy=-1016.8295788557151 pbc="T T T"
C        0.00000000       0.00000000      20.00000068
C        1.24229995       0.70303948      20.00000068
C        1.24229995       0.70303948      23.30000103
C        2.48460015       1.40607895      23.30000103
4
Lattice="2.509200098027195 0.0 0.0 1.2176997523720097 2.109118179197151 0.0 0.0 0.0 43.43000060268459" Properties=species:S:1:pos:R:3 energy=-1016.8084588761849 pbc="T T T"
C        0.00000000       0.00000000      20.00000068
C        1.24229995       0.70303948      20.00000068
C        0.00000000       0.00000000      23.43000093
C        1.24229995       0.70303948      23.43000093
4
Lattice="2.509200098027195 0.0 0.0 1.2176997523720097 2.109118179197151 0.0 0.0 0.0 43.300001454805894" Properties=species:S:1:pos:R:3 energy=-1016.7941418786777 pbc="T T T"
C        0.00000000       0.00000000      20.00000068
C        1.24229995       0.70303948      20.00000068
C        0.00000000       0.00000000      23.30000103
C        1.24229995       0.70303948      23.30000103
4
Lattice="2.509200098027195 0.0 0.0 1.2176997523720097 2.109118179197151 0.0 0.0 0.0 43.43000060268459" Properties=species:S:1:pos:R:3 energy=-1016.8301058041636 pbc="T T T"
C        0.00000000       0.00000000      20.00000068
C        1.24229995       0.70303948      20.00000068
C        1.25460005       0.00000000      23.43000093
C        2.49690000       0.70303948      23.43000093
4
Lattice="2.509200098027195 0.0 0.0 1.2176997523720097 2.109118179197151 0.0 0.0 0.0 43.300001454805894" Properties=species:S:1:pos:R:3 energy=-1016.8261763442765 pbc="T T T"
C        0.00000000       0.00000000      20.00000068
C        1.24229995       0.70303948      20.00000068
C        1.25460005       0.00000000      23.30000103
C        2.49690000       0.70303948      23.30000103
4
Lattice="2.509200098027195 0.0 0.0 1.229999851252539 2.1304237972295 0.0 0.0 0.0 43.43000060268459" Properties=species:S:1:pos:R:3 energy=-1016.8554650451865 pbc="T T T"
C        0.00000000       0.00000000      20.00000068
C        1.24639998       0.71014076      20.00000068
C        1.24639998       0.71014076      23.43000093
C        2.49280022       1.42028178      23.43000093
4
Lattice="2.509200098027195 0.0 0.0 1.229999851252539 2.1304237972295 0.0 0.0 0.0 43.300001454805894" Properties=species:S:1:pos:R:3 energy=-1016.8525588693896 pbc="T T T"
C        0.00000000       0.00000000      20.00000068
C        1.24639998       0.71014076      20.00000068
C        1.24639998       0.71014076      23.30000103
C        2.49280022       1.42028178      23.30000103
4
Lattice="2.509200098027195 0.0 0.0 1.229999851252539 2.1304237972295 0.0 0.0 0.0 43.43000060268459" Properties=species:S:1:pos:R:3 energy=-1016.831597940398 pbc="T T T"
C        0.00000000       0.00000000      20.00000068
C        1.24639998       0.71014076      20.00000068
C        0.00000000       0.00000000      23.43000093
C        1.24639998       0.71014076      23.43000093
4
Lattice="2.509200098027195 0.0 0.0 1.229999851252539 2.1304237972295 0.0 0.0 0.0 43.300001454805894" Properties=species:S:1:pos:R:3 energy=-1016.8171567229236 pbc="T T T"
C        0.00000000       0.00000000      20.00000068
C        1.24639998       0.71014076      20.00000068
C        0.00000000       0.00000000      23.30000103
C        1.24639998       0.71014076      23.30000103
4
Lattice="2.509200098027195 0.0 0.0 1.229999851252539 2.1304237972295 0.0 0.0 0.0 43.43000060268459" Properties=species:S:1:pos:R:3 energy=-1016.8530825524722 pbc="T T T"
C        0.00000000       0.00000000      20.00000068
C        1.24639998       0.71014076      20.00000068
C        1.25460005       0.00000000      23.43000093
C        2.50100003       0.71014076      23.43000093
4
Lattice="2.509200098027195 0.0 0.0 1.229999851252539 2.1304237972295 0.0 0.0 0.0 43.300001454805894" Properties=species:S:1:pos:R:3 energy=-1016.8490341788377 pbc="T T T"
C        0.00000000       0.00000000      20.00000068
C        1.24639998       0.71014076      20.00000068
C        1.25460005       0.00000000      23.30000103
C        2.50100003       0.71014076      23.30000103
4
Lattice="2.509200098027195 0.0 0.0 1.2422999501330683 2.151726906061751 0.0 0.0 0.0 43.43000060268459" Properties=species:S:1:pos:R:3 energy=-1016.8514368079759 pbc="T T T"
C        0.00000000       0.00000000      20.00000068
C        1.25050002       0.71724230      20.00000068
C        1.25050002       0.71724230      23.43000093
C        2.50100003       1.43448460      23.43000093
4
Lattice="2.4599998470805247 0.0 0.0 1.2176999243048596 2.1091177688921943 0.0 0.0 0.0 43.099996820801096" Properties=species:S:1:pos:R:3 energy=-1016.8385222851934 pbc="T T T"
C        0.00000000       0.00000000      19.99999875
C        1.22589984       0.70303942      19.99999875
C        1.22589984       0.70303942      23.09999856
C        2.45179993       1.40607884      23.09999856
4
Lattice="2.4599998470805247 0.0 0.0 1.2176999243048596 2.1091177688921943 0.0 0.0 0.0 42.99999782701727" Properties=species:S:1:pos:R:3 energy=-1016.7269315292699 pbc="T T T"
C        0.00000000       0.00000000      19.99999875
C        1.22589984       0.70303942      19.99999875
C        0.00000000       0.00000000      22.99999858
C        1.22589984       0.70303942      22.99999858
4
Lattice="2.509200098027195 0.0 0.0 1.2422999501330683 2.151726906061751 0.0 0.0 0.0 43.43000060268459" Properties=species:S:1:pos:R:3 energy=-1016.8490877852638 pbc="T T T"
C        0.00000000       0.00000000      20.00000068
C        1.25050002       0.71724230      20.00000068
C        1.25460005       0.00000000      23.43000093
C        2.50510007       0.71724230      23.43000093
4
Lattice="2.509200098027195 0.0 0.0 1.2422999501330683 2.151726906061751 0.0 0.0 0.0 43.300001454805894" Properties=species:S:1:pos:R:3 energy=-1016.8448336935672 pbc="T T T"
C        0.00000000       0.00000000      20.00000068
C        1.25050002       0.71724230      20.00000068
C        1.25460005       0.00000000      23.30000103
C        2.50510007       0.71724230      23.30000103
4
Lattice="2.509200098027195 0.0 0.0 1.2546000490135976 2.173030014894002 0.0 0.0 0.0 43.43000060268459" Properties=species:S:1:pos:R:3 energy=-1016.8220494657995 pbc="T T T"
C        0.00000000       0.00000000      20.00000068
C        1.25460005       0.72434359      20.00000068
C        1.25460005       0.72434359      23.43000093
C        2.50920010       1.44868743      23.43000093
4
Lattice="2.509200098027195 0.0 0.0 1.2546000490135976 2.173030014894002 0.0 0.0 0.0 43.300001454805894" Properties=species:S:1:pos:R:3 energy=-1016.8188673665703 pbc="T T T"
C        0.00000000       0.00000000      20.00000068
C        1.25460005       0.72434359      20.00000068
C        1.25460005       0.72434359      23.30000103
C        2.50920010       1.44868743      23.30000103
4
Lattice="2.509200098027195 0.0 0.0 1.2546000490135976 2.173030014894002 0.0 0.0 0.0 43.43000060268459" Properties=species:S:1:pos:R:3 energy=-1016.8191547187839 pbc="T T T"
C        0.00000000       0.00000000      20.00000068
C        1.25460005       0.72434359      20.00000068
C        1.25460005       0.00000000      23.43000093
C        2.50920010       0.72434359      23.43000093
4
Lattice="2.509200098027195 0.0 0.0 1.2546000490135976 2.173030014894002 0.0 0.0 0.0 43.300001454805894" Properties=species:S:1:pos:R:3 energy=-1016.8145704169441 pbc="T T T"
C        0.00000000       0.00000000      20.00000068
C        1.25460005       0.72434359      20.00000068
C        1.25460005       0.00000000      23.30000103
C        2.50920010       0.72434359      23.30000103
4
Lattice="2.4108001253110625 0.0 0.0 1.2054000626555312 2.087813178522513 0.0 0.0 0.0 44.00000247947764" Properties=species:S:1:pos:R:3 energy=-1016.6985999887875 pbc="T T T"
C        0.00000000       0.00000000      20.00000097
C        1.20540006       0.69593797      20.00000097
C        1.20540006       0.69593797      24.00000126
C        2.41080013       1.39187618      24.00000126
4
Lattice="2.4108001253110625 0.0 0.0 1.2054000626555312 2.087813178522513 0.0 0.0 0.0 43.50000253348813" Properties=species:S:1:pos:R:3 energy=-1016.7122260892581 pbc="T T T"
C        0.00000000       0.00000000      20.00000097
C        1.20540006       0.69593797      20.00000097
C        0.00000000       0.00000000      23.50000132
C        1.20540006       0.69593797      23.50000132
4
Lattice="2.4108001253110625 0.0 0.0 1.2054000626555312 2.087813178522513 0.0 0.0 0.0 44.00000247947764" Properties=species:S:1:pos:R:3 energy=-1016.6955500008269 pbc="T T T"
C        0.00000000       0.00000000      20.00000097
C        1.20540006       0.69593797      20.00000097
C        0.00000000       0.00000000      24.00000126
C        1.20540006       0.69593797      24.00000126
4
Lattice="2.4108001253110625 0.0 0.0 1.2054000626555312 2.087813178522513 0.0 0.0 0.0 43.50000253348813" Properties=species:S:1:pos:R:3 energy=-1016.7271640505451 pbc="T T T"
C        0.00000000       0.00000000      20.00000097
C        1.20540006       0.69593797      20.00000097
C        1.20540006       0.00000000      23.50000132
C        2.41080013       0.69593797      23.50000132
4
Lattice="2.4108001253110625 0.0 0.0 1.2054000626555312 2.087813178522513 0.0 0.0 0.0 44.00000247947764" Properties=species:S:1:pos:R:3 energy=-1016.6982738603517 pbc="T T T"
C        0.00000000       0.00000000      20.00000097
C        1.20540006       0.69593797      20.00000097
C        1.20540006       0.00000000      24.00000126
C        2.41080013       0.69593797      24.00000126
4
Lattice="2.435399986195794 0.0 0.0 1.2053987877676218 2.0878148293659575 0.0 0.0 0.0 43.499999140235595" Properties=species:S:1:pos:R:3 energy=-1016.7838963844816 pbc="T T T"
C        0.00000000       0.00000000      19.99999980
C        1.21360000       0.69593795      19.99999980
C        1.21360000       0.69593795      23.49999982
C        2.42719999       1.39187590      23.49999982
4
Lattice="2.435399986195794 0.0 0.0 1.2053987877676218 2.0878148293659575 0.0 0.0 0.0 43.99999893440152" Properties=species:S:1:pos:R:3 energy=-1016.7505442076192 pbc="T T T"
C        0.00000000       0.00000000      19.99999980
C        1.21360000       0.69593795      19.99999980
C        0.00000000       0.00000000      23.99999986
C        1.21360000       0.69593795      23.99999986
4
Lattice="2.4599998470805247 0.0 0.0 1.2176999243048596 2.1091177688921943 0.0 0.0 0.0 42.99999782701727" Properties=species:S:1:pos:R:3 energy=-1016.8037386534826 pbc="T T T"
C        0.00000000       0.00000000      19.99999875
C        1.22589984       0.70303942      19.99999875
C        1.22999992       0.00000000      22.99999858
C        2.45589977       0.70303942      22.99999858
4
Lattice="2.435399986195794 0.0 0.0 1.2053987877676218 2.0878148293659575 0.0 0.0 0.0 43.499999140235595" Properties=species:S:1:pos:R:3 energy=-1016.7822062854299 pbc="T T T"
C        0.00000000       0.00000000      19.99999980
C        1.21360000       0.69593795      19.99999980
C        1.21769999       0.00000000      23.49999982
C        2.43129999       0.69593795      23.49999982
4
Lattice="2.435399986195794 0.0 0.0 1.2053987877676218 2.0878148293659575 0.0 0.0 0.0 43.99999893440152" Properties=species:S:1:pos:R:3 energy=-1016.7533672526382 pbc="T T T"
C        0.00000000       0.00000000      19.99999980
C        1.21360000       0.69593795      19.99999980
C        1.21769999       0.00000000      23.99999986
C        2.43129999       0.69593795      23.99999986
4
Lattice="2.435399986195794 0.0 0.0 1.217699993097897 2.1091172730452126 0.0 0.0 0.0 43.499999140235595" Properties=species:S:1:pos:R:3 energy=-1016.8378391434013 pbc="T T T"
C        0.00000000       0.00000000      19.99999980
C        1.21769999       0.70303933      19.99999980
C        1.21769999       0.70303933      23.49999982
C        2.43539999       1.40607891      23.49999982
4
Lattice="2.435399986195794 0.0 0.0 1.217699993097897 2.1091172730452126 0.0 0.0 0.0 43.99999893440152" Properties=species:S:1:pos:R:3 energy=-1016.8077844420358 pbc="T T T"
C        0.00000000       0.00000000      19.99999980
C        1.21769999       0.70303933      19.99999980
C        1.21769999       0.70303933      23.99999986
C        2.43539999       1.40607891      23.99999986
4
Lattice="2.435399986195794 0.0 0.0 1.217699993097897 2.1091172730452126 0.0 0.0 0.0 43.99999893440152" Properties=species:S:1:pos:R:3 energy=-1016.8045442465019 pbc="T T T"
C        0.00000000       0.00000000      19.99999980
C        1.21769999       0.70303933      19.99999980
C        0.00000000       0.00000000      23.99999986
C        1.21769999       0.70303933      23.99999986
4
Lattice="2.435399986195794 0.0 0.0 1.217699993097897 2.1091172730452126 0.0 0.0 0.0 43.499999140235595" Properties=species:S:1:pos:R:3 energy=-1016.8358029155468 pbc="T T T"
C        0.00000000       0.00000000      19.99999980
C        1.21769999       0.70303933      19.99999980
C        1.21769999       0.00000000      23.49999982
C        2.43539999       0.70303933      23.49999982
4
Lattice="2.4599998470805247 0.0 0.0 1.2053999250694571 2.0878141702164768 0.0 0.0 0.0 43.49999771593608" Properties=species:S:1:pos:R:3 energy=-1016.8092631086349 pbc="T T T"
C        0.00000000       0.00000000      19.99999875
C        1.22180001       0.69593789      19.99999875
C        1.22180001       0.69593789      23.49999847
C        2.44359977       1.39187603      23.49999847
4
Lattice="2.4599998470805247 0.0 0.0 1.2053999250694571 2.0878141702164768 0.0 0.0 0.0 43.99999760485489" Properties=species:S:1:pos:R:3 energy=-1016.7793941249643 pbc="T T T"
C        0.00000000       0.00000000      19.99999875
C        1.22180001       0.69593789      19.99999875
C        1.22180001       0.69593789      23.99999860
C        2.44359977       1.39187603      23.99999860
4
Lattice="2.4599998470805247 0.0 0.0 1.2053999250694571 2.0878141702164768 0.0 0.0 0.0 43.49999771593608" Properties=species:S:1:pos:R:3 energy=-1016.7914523054965 pbc="T T T"
C        0.00000000       0.00000000      19.99999875
C        1.22180001       0.69593789      19.99999875
C        0.00000000       0.00000000      23.49999847
C        1.22180001       0.69593789      23.49999847
4
Lattice="2.4599998470805247 0.0 0.0 1.2053999250694571 2.0878141702164768 0.0 0.0 0.0 43.99999760485489" Properties=species:S:1:pos:R:3 energy=-1016.7762049507751 pbc="T T T"
C        0.00000000       0.00000000      19.99999875
C        1.22180001       0.69593789      19.99999875
C        0.00000000       0.00000000      23.99999860
C        1.22180001       0.69593789      23.99999860
4
Lattice="2.4599998470805247 0.0 0.0 1.2053999250694571 2.0878141702164768 0.0 0.0 0.0 43.99999760485489" Properties=species:S:1:pos:R:3 energy=-1016.7790635066502 pbc="T T T"
C        0.00000000       0.00000000      19.99999875
C        1.22180001       0.69593789      19.99999875
C        1.22999992       0.00000000      23.99999860
C        2.45179993       0.69593789      23.99999860
4
Lattice="2.4599998470805247 0.0 0.0 1.2176999243048596 2.1091177688921943 0.0 0.0 0.0 43.99999760485489" Properties=species:S:1:pos:R:3 energy=-1016.8326951033955 pbc="T T T"
C        0.00000000       0.00000000      19.99999875
C        1.22589984       0.70303942      19.99999875
C        1.22589984       0.70303942      23.99999860
C        2.45179993       1.40607884      23.99999860
4
Lattice="2.4599998470805247 0.0 0.0 1.2176999243048596 2.1091177688921943 0.0 0.0 0.0 43.49999771593608" Properties=species:S:1:pos:R:3 energy=-1016.8444402169564 pbc="T T T"
C        0.00000000       0.00000000      19.99999875
C        1.22589984       0.70303942      19.99999875
C        0.00000000       0.00000000      23.49999847
C        1.22589984       0.70303942      23.49999847
4
Lattice="2.4599998470805247 0.0 0.0 1.2176999243048596 2.1091177688921943 0.0 0.0 0.0 43.99999760485489" Properties=species:S:1:pos:R:3 energy=-1016.8293776275315 pbc="T T T"
C        0.00000000       0.00000000      19.99999875
C        1.22589984       0.70303942      19.99999875
C        0.00000000       0.00000000      23.99999860
C        1.22589984       0.70303942      23.99999860
4
Lattice="2.4599998470805247 0.0 0.0 1.2176999243048596 2.1091177688921943 0.0 0.0 0.0 43.49999771593608" Properties=species:S:1:pos:R:3 energy=-1016.8607073182881 pbc="T T T"
C        0.00000000       0.00000000      19.99999875
C        1.22589984       0.70303942      19.99999875
C        1.22999992       0.00000000      23.49999847
C        2.45589977       0.70303942      23.49999847
4
Lattice="2.4599998470805247 0.0 0.0 1.2176999243048596 2.1091177688921943 0.0 0.0 0.0 43.99999760485489" Properties=species:S:1:pos:R:3 energy=-1016.8323729206106 pbc="T T T"
C        0.00000000       0.00000000      19.99999875
C        1.22589984       0.70303942      19.99999875
C        1.22999992       0.00000000      23.99999860
C        2.45589977       0.70303942      23.99999860
4
Lattice="2.4599998470805247 0.0 0.0 1.2176999243048596 2.1091177688921943 0.0 0.0 0.0 43.099996820801096" Properties=species:S:1:pos:R:3 energy=-1016.8322418977972 pbc="T T T"
C        0.00000000       0.00000000      19.99999875
C        1.22589984       0.70303942      19.99999875
C        1.22999992       0.00000000      23.09999856
C        2.45589977       0.70303942      23.09999856
4
Lattice="2.4599998470805247 0.0 0.0 1.2299999235402623 2.1304213675679113 0.0 0.0 0.0 42.99999782701727" Properties=species:S:1:pos:R:3 energy=-1016.8357157030615 pbc="T T T"
C        0.00000000       0.00000000      19.99999875
C        1.22999992       0.71014070      19.99999875
C        1.22999992       0.71014070      22.99999858
C        2.45999985       1.42028165      22.99999858
4
Lattice="2.4599998470805247 0.0 0.0 1.2299999235402623 2.1304213675679113 0.0 0.0 0.0 43.49999771593608" Properties=species:S:1:pos:R:3 energy=-1016.8864564984417 pbc="T T T"
C        0.00000000       0.00000000      19.99999875
C        1.22999992       0.71014070      19.99999875
C        1.22999992       0.71014070      23.49999847
C        2.45999985       1.42028165      23.49999847
4
Lattice="2.4599998470805247 0.0 0.0 1.2299999235402623 2.1304213675679113 0.0 0.0 0.0 43.99999760485489" Properties=species:S:1:pos:R:3 energy=-1016.8568833025136 pbc="T T T"
C        0.00000000       0.00000000      19.99999875
C        1.22999992       0.71014070      19.99999875
C        1.22999992       0.71014070      23.99999860
C        2.45999985       1.42028165      23.99999860
4
Lattice="2.4599998470805247 0.0 0.0 1.2299999235402623 2.1304213675679113 0.0 0.0 0.0 43.49999771593608" Properties=species:S:1:pos:R:3 energy=-1016.8683032400373 pbc="T T T"
C        0.00000000       0.00000000      19.99999875
C        1.22999992       0.71014070      19.99999875
C        0.00000000       0.00000000      23.49999847
C        1.22999992       0.71014070      23.49999847
4
Lattice="2.4599998470805247 0.0 0.0 1.2299999235402623 2.1304213675679113 0.0 0.0 0.0 43.99999760485489" Properties=species:S:1:pos:R:3 energy=-1016.8534543960326 pbc="T T T"
C        0.00000000       0.00000000      19.99999875
C        1.22999992       0.71014070      19.99999875
C        0.00000000       0.00000000      23.99999860
C        1.22999992       0.71014070      23.99999860
4
Lattice="2.4599998470805247 0.0 0.0 1.2299999235402623 2.1304213675679113 0.0 0.0 0.0 43.49999771593608" Properties=species:S:1:pos:R:3 energy=-1016.8843678886731 pbc="T T T"
C        0.00000000       0.00000000      19.99999875
C        1.22999992       0.71014070      19.99999875
C        1.22999992       0.00000000      23.49999847
C        2.45999985       0.71014070      23.49999847
4
Lattice="2.4599998470805247 0.0 0.0 1.2299999235402623 2.1304213675679113 0.0 0.0 0.0 43.99999760485489" Properties=species:S:1:pos:R:3 energy=-1016.8565125474084 pbc="T T T"
C        0.00000000       0.00000000      19.99999875
C        1.22999992       0.71014070      19.99999875
C        1.22999992       0.00000000      23.99999860
C        2.45999985       0.71014070      23.99999860
4
Lattice="2.4846002371424643 0.0 0.0 1.2054013204494294 2.087814548471287 0.0 0.0 0.0 43.50000329265421" Properties=species:S:1:pos:R:3 energy=-1016.8070659254448 pbc="T T T"
C        0.00000000       0.00000000      20.00000179
C        1.23000011       0.69593802      20.00000179
C        1.23000011       0.69593802      23.50000224
C        2.46000021       1.39187628      23.50000224
4
Lattice="2.4846002371424643 0.0 0.0 1.2054013204494294 2.087814548471287 0.0 0.0 0.0 44.00000424437677" Properties=species:S:1:pos:R:3 energy=-1016.7775281043157 pbc="T T T"
C        0.00000000       0.00000000      20.00000179
C        1.23000011       0.69593802      20.00000179
C        1.23000011       0.69593802      24.00000220
C        2.46000021       1.39187628      24.00000220
4
Lattice="2.4846002371424643 0.0 0.0 1.2054013204494294 2.087814548471287 0.0 0.0 0.0 43.50000329265421" Properties=species:S:1:pos:R:3 energy=-1016.8053226281373 pbc="T T T"
C        0.00000000       0.00000000      20.00000179
C        1.23000011       0.69593802      20.00000179
C        1.24230012       0.00000000      23.50000224
C        2.47230022       0.69593802      23.50000224
4
Lattice="2.4846002371424643 0.0 0.0 1.2054013204494294 2.087814548471287 0.0 0.0 0.0 44.00000424437677" Properties=species:S:1:pos:R:3 energy=-1016.7772162618566 pbc="T T T"
C        0.00000000       0.00000000      20.00000179
C        1.23000011       0.69593802      20.00000179
C        1.24230012       0.00000000      24.00000220
C        2.47230022       0.69593802      24.00000220
4
Lattice="2.4846002371424643 0.0 0.0 1.2177000916232845 2.1091175109045466 0.0 0.0 0.0 43.50000329265421" Properties=species:S:1:pos:R:3 energy=-1016.8596656665138 pbc="T T T"
C        0.00000000       0.00000000      20.00000179
C        1.23410019       0.70303950      20.00000179
C        1.23410019       0.70303950      23.50000224
C        2.46820014       1.40607900      23.50000224
4
Lattice="2.4846002371424643 0.0 0.0 1.2177000916232845 2.1091175109045466 0.0 0.0 0.0 43.50000329265421" Properties=species:S:1:pos:R:3 energy=-1016.8409831466932 pbc="T T T"
C        0.00000000       0.00000000      20.00000179
C        1.23410019       0.70303950      20.00000179
C        0.00000000       0.00000000      23.50000224
C        1.23410019       0.70303950      23.50000224
4
Lattice="2.4846002371424643 0.0 0.0 1.2177000916232845 2.1091175109045466 0.0 0.0 0.0 44.00000424437677" Properties=species:S:1:pos:R:3 energy=-1016.8268607105807 pbc="T T T"
C        0.00000000       0.00000000      20.00000179
C        1.23410019       0.70303950      20.00000179
C        0.00000000       0.00000000      24.00000220
C        1.23410019       0.70303950      24.00000220
4
Lattice="2.4846002371424643 0.0 0.0 1.2177000916232845 2.1091175109045466 0.0 0.0 0.0 43.50000329265421" Properties=species:S:1:pos:R:3 energy=-1016.8578044078574 pbc="T T T"
C        0.00000000       0.00000000      20.00000179
C        1.23410019       0.70303950      20.00000179
C        1.24230012       0.00000000      23.50000224
C        2.47640031       0.70303950      23.50000224
4
Lattice="2.4846002371424643 0.0 0.0 1.230001347397377 2.130422957938043 0.0 0.0 0.0 43.50000329265421" Properties=species:S:1:pos:R:3 energy=-1016.8831674584738 pbc="T T T"
C        0.00000000       0.00000000      20.00000179
C        1.23820003       0.71014099      20.00000179
C        1.23820003       0.71014099      23.50000224
C        2.47640031       1.42028172      23.50000224
4
Lattice="2.4846002371424643 0.0 0.0 1.230001347397377 2.130422957938043 0.0 0.0 0.0 44.00000424437677" Properties=species:S:1:pos:R:3 energy=-1016.8538571245139 pbc="T T T"
C        0.00000000       0.00000000      20.00000179
C        1.23820003       0.71014099      20.00000179
C        1.23820003       0.71014099      24.00000220
C        2.47640031       1.42028172      24.00000220
4
Lattice="2.4599998470805247 0.0 0.0 1.2299999235402623 2.1304213675679113 0.0 0.0 0.0 43.099996820801096" Properties=species:S:1:pos:R:3 energy=-1016.8619454362541 pbc="T T T"
C        0.00000000       0.00000000      19.99999875
C        1.22999992       0.71014070      19.99999875
C        1.22999992       0.71014070      23.09999856
C        2.45999985       1.42028165      23.09999856
4
Lattice="2.4846002371424643 0.0 0.0 1.230001347397377 2.130422957938043 0.0 0.0 0.0 44.00000424437677" Properties=species:S:1:pos:R:3 energy=-1016.8535217442078 pbc="T T T"
C        0.00000000       0.00000000      20.00000179
C        1.23820003       0.71014099      20.00000179
C        1.24230012       0.00000000      24.00000220
C        2.48050015       0.71014099      24.00000220
4
Lattice="2.4846002371424643 0.0 0.0 1.2423001185712321 2.1517259203713026 0.0 0.0 0.0 43.50000329265421" Properties=species:S:1:pos:R:3 energy=-1016.8794780029925 pbc="T T T"
C        0.00000000       0.00000000      20.00000179
C        1.24230012       0.71724222      20.00000179
C        1.24230012       0.71724222      23.50000224
C        2.48460024       1.43448469      23.50000224
4
Lattice="2.4846002371424643 0.0 0.0 1.2423001185712321 2.1517259203713026 0.0 0.0 0.0 44.00000424437677" Properties=species:S:1:pos:R:3 energy=-1016.8503271277419 pbc="T T T"
C        0.00000000       0.00000000      20.00000179
C        1.24230012       0.71724222      20.00000179
C        1.24230012       0.71724222      24.00000220
C        2.48460024       1.43448469      24.00000220
4
Lattice="2.4846002371424643 0.0 0.0 1.2423001185712321 2.1517259203713026 0.0 0.0 0.0 43.50000329265421" Properties=species:S:1:pos:R:3 energy=-1016.8606376571455 pbc="T T T"
C        0.00000000       0.00000000      20.00000179
C        1.24230012       0.71724222      20.00000179
C        0.00000000       0.00000000      23.50000224
C        1.24230012       0.71724222      23.50000224
4
Lattice="2.4846002371424643 0.0 0.0 1.2423001185712321 2.1517259203713026 0.0 0.0 0.0 44.00000424437677" Properties=species:S:1:pos:R:3 energy=-1016.8499479371078 pbc="T T T"
C        0.00000000       0.00000000      20.00000179
C        1.24230012       0.71724222      20.00000179
C        1.24230012       0.00000000      24.00000220
C        2.48460024       0.71724222      24.00000220
4
Lattice="2.509200098027195 0.0 0.0 1.2053996534914804 2.0878150703649 0.0 0.0 0.0 43.500002267019354" Properties=species:S:1:pos:R:3 energy=-1016.7790447307954 pbc="T T T"
C        0.00000000       0.00000000      20.00000068
C        1.23820017       0.69593794      20.00000068
C        1.23820017       0.69593794      23.50000084
C        2.47640009       1.39187613      23.50000084
4
Lattice="2.509200098027195 0.0 0.0 1.2053996534914804 2.0878150703649 0.0 0.0 0.0 43.500002267019354" Properties=species:S:1:pos:R:3 energy=-1016.7606579987173 pbc="T T T"
C        0.00000000       0.00000000      20.00000068
C        1.23820017       0.69593794      20.00000068
C        0.00000000       0.00000000      23.50000084
C        1.23820017       0.69593794      23.50000084
4
Lattice="2.509200098027195 0.0 0.0 1.2053996534914804 2.0878150703649 0.0 0.0 0.0 44.00000053375284" Properties=species:S:1:pos:R:3 energy=-1016.7464959700415 pbc="T T T"
C        0.00000000       0.00000000      20.00000068
C        1.23820017       0.69593794      20.00000068
C        0.00000000       0.00000000      24.00000086
C        1.23820017       0.69593794      24.00000086
4
Lattice="2.509200098027195 0.0 0.0 1.2053996534914804 2.0878150703649 0.0 0.0 0.0 43.500002267019354" Properties=species:S:1:pos:R:3 energy=-1016.7774909607766 pbc="T T T"
C        0.00000000       0.00000000      20.00000068
C        1.23820017       0.69593794      20.00000068
C        1.25460005       0.00000000      23.50000084
C        2.49280022       0.69593794      23.50000084
4
Lattice="2.509200098027195 0.0 0.0 1.2176997523720097 2.109118179197151 0.0 0.0 0.0 43.500002267019354" Properties=species:S:1:pos:R:3 energy=-1016.8311807898834 pbc="T T T"
C        0.00000000       0.00000000      20.00000068
C        1.24229995       0.70303948      20.00000068
C        1.24229995       0.70303948      23.50000084
C        2.48460015       1.40607895      23.50000084
4
Lattice="2.509200098027195 0.0 0.0 1.2176997523720097 2.109118179197151 0.0 0.0 0.0 44.00000053375284" Properties=species:S:1:pos:R:3 energy=-1016.8021051541091 pbc="T T T"
C        0.00000000       0.00000000      20.00000068
C        1.24229995       0.70303948      20.00000068
C        1.24229995       0.70303948      24.00000086
C        2.48460015       1.40607895      24.00000086
4
Lattice="2.509200098027195 0.0 0.0 1.2176997523720097 2.109118179197151 0.0 0.0 0.0 43.500002267019354" Properties=species:S:1:pos:R:3 energy=-1016.8122275167934 pbc="T T T"
C        0.00000000       0.00000000      20.00000068
C        1.24229995       0.70303948      20.00000068
C        0.00000000       0.00000000      23.50000084
C        1.24229995       0.70303948      23.50000084
4
Lattice="2.509200098027195 0.0 0.0 1.2176997523720097 2.109118179197151 0.0 0.0 0.0 44.00000053375284" Properties=species:S:1:pos:R:3 energy=-1016.7986612813671 pbc="T T T"
C        0.00000000       0.00000000      20.00000068
C        1.24229995       0.70303948      20.00000068
C        0.00000000       0.00000000      24.00000086
C        1.24229995       0.70303948      24.00000086
4
Lattice="2.4599998470805247 0.0 0.0 1.2299999235402623 2.1304213675679113 0.0 0.0 0.0 42.99999782701727" Properties=species:S:1:pos:R:3 energy=-1016.82588735938 pbc="T T T"
C        0.00000000       0.00000000      19.99999875
C        1.22999992       0.71014070      19.99999875
C        1.22999992       0.00000000      22.99999858
C        2.45999985       0.71014070      22.99999858
4
Lattice="2.509200098027195 0.0 0.0 1.2176997523720097 2.109118179197151 0.0 0.0 0.0 43.500002267019354" Properties=species:S:1:pos:R:3 energy=-1016.8293520488307 pbc="T T T"
C        0.00000000       0.00000000      20.00000068
C        1.24229995       0.70303948      20.00000068
C        1.25460005       0.00000000      23.50000084
C        2.49690000       0.70303948      23.50000084
4
Lattice="2.509200098027195 0.0 0.0 1.2176997523720097 2.109118179197151 0.0 0.0 0.0 44.00000053375284" Properties=species:S:1:pos:R:3 energy=-1016.8017727670552 pbc="T T T"
C        0.00000000       0.00000000      20.00000068
C        1.24229995       0.70303948      20.00000068
C        1.25460005       0.00000000      24.00000086
C        2.49690000       0.70303948      24.00000086
4
Lattice="2.509200098027195 0.0 0.0 1.229999851252539 2.1304237972295 0.0 0.0 0.0 44.00000053375284" Properties=species:S:1:pos:R:3 energy=-1016.8217608890736 pbc="T T T"
C        0.00000000       0.00000000      20.00000068
C        1.24639998       0.71014076      20.00000068
C        0.00000000       0.00000000      24.00000086
C        1.24639998       0.71014076      24.00000086
4
Lattice="2.509200098027195 0.0 0.0 1.229999851252539 2.1304237972295 0.0 0.0 0.0 43.500002267019354" Properties=species:S:1:pos:R:3 energy=-1016.8523750564917 pbc="T T T"
C        0.00000000       0.00000000      20.00000068
C        1.24639998       0.71014076      20.00000068
C        1.25460005       0.00000000      23.50000084
C        2.50100003       0.71014076      23.50000084
4
Lattice="2.509200098027195 0.0 0.0 1.229999851252539 2.1304237972295 0.0 0.0 0.0 44.00000053375284" Properties=species:S:1:pos:R:3 energy=-1016.8249752337928 pbc="T T T"
C        0.00000000       0.00000000      20.00000068
C        1.24639998       0.71014076      20.00000068
C        1.25460005       0.00000000      24.00000086
C        2.50100003       0.71014076      24.00000086
4
Lattice="2.509200098027195 0.0 0.0 1.2422999501330683 2.151726906061751 0.0 0.0 0.0 43.500002267019354" Properties=species:S:1:pos:R:3 energy=-1016.850328488311 pbc="T T T"
C        0.00000000       0.00000000      20.00000068
C        1.25050002       0.71724230      20.00000068
C        1.25050002       0.71724230      23.50000084
C        2.50100003       1.43448460      23.50000084
4
Lattice="2.509200098027195 0.0 0.0 1.2422999501330683 2.151726906061751 0.0 0.0 0.0 43.500002267019354" Properties=species:S:1:pos:R:3 energy=-1016.8309652757231 pbc="T T T"
C        0.00000000       0.00000000      20.00000068
C        1.25050002       0.71724230      20.00000068
C        0.00000000       0.00000000      23.50000084
C        1.25050002       0.71724230      23.50000084
4
Lattice="2.509200098027195 0.0 0.0 1.2422999501330683 2.151726906061751 0.0 0.0 0.0 43.500002267019354" Properties=species:S:1:pos:R:3 energy=-1016.8484328072541 pbc="T T T"
C        0.00000000       0.00000000      20.00000068
C        1.25050002       0.71724230      20.00000068
C        1.25460005       0.00000000      23.50000084
C        2.50510007       0.71724230      23.50000084
4
Lattice="2.509200098027195 0.0 0.0 1.2422999501330683 2.151726906061751 0.0 0.0 0.0 44.00000053375284" Properties=species:S:1:pos:R:3 energy=-1016.8211064552917 pbc="T T T"
C        0.00000000       0.00000000      20.00000068
C        1.25050002       0.71724230      20.00000068
C        1.25460005       0.00000000      24.00000086
C        2.50510007       0.71724230      24.00000086
4
Lattice="2.509200098027195 0.0 0.0 1.2546000490135976 2.173030014894002 0.0 0.0 0.0 43.500002267019354" Properties=species:S:1:pos:R:3 energy=-1016.820994616504 pbc="T T T"
C        0.00000000       0.00000000      20.00000068
C        1.25460005       0.72434359      20.00000068
C        1.25460005       0.72434359      23.50000084
C        2.50920010       1.44868743      23.50000084
4
Lattice="2.509200098027195 0.0 0.0 1.2546000490135976 2.173030014894002 0.0 0.0 0.0 44.00000053375284" Properties=species:S:1:pos:R:3 energy=-1016.7923281038862 pbc="T T T"
C        0.00000000       0.00000000      20.00000068
C        1.25460005       0.72434359      20.00000068
C        1.25460005       0.72434359      24.00000086
C        2.50920010       1.44868743      24.00000086
4
Lattice="2.509200098027195 0.0 0.0 1.2546000490135976 2.173030014894002 0.0 0.0 0.0 43.500002267019354" Properties=species:S:1:pos:R:3 energy=-1016.8014429650827 pbc="T T T"
C        0.00000000       0.00000000      20.00000068
C        1.25460005       0.72434359      20.00000068
C        0.00000000       0.00000000      23.50000084
C        1.25460005       0.72434359      23.50000084
4
Lattice="2.509200098027195 0.0 0.0 1.2546000490135976 2.173030014894002 0.0 0.0 0.0 44.00000053375284" Properties=species:S:1:pos:R:3 energy=-1016.7918810208492 pbc="T T T"
C        0.00000000       0.00000000      20.00000068
C        1.25460005       0.72434359      20.00000068
C        1.25460005       0.00000000      24.00000086
C        2.50920010       0.72434359      24.00000086
4
Lattice="2.4599998470805247 0.0 0.0 1.2299999235402623 2.1304213675679113 0.0 0.0 0.0 43.099996820801096" Properties=species:S:1:pos:R:3 energy=-1016.8547808149392 pbc="T T T"
C        0.00000000       0.00000000      19.99999875
C        1.22999992       0.71014070      19.99999875
C        1.22999992       0.00000000      23.09999856
C        2.45999985       0.71014070      23.09999856
4
Lattice="2.4846002371424643 0.0 0.0 1.2054013204494294 2.087814548471287 0.0 0.0 0.0 43.00000482553191" Properties=species:S:1:pos:R:3 energy=-1016.756516698207 pbc="T T T"
C        0.00000000       0.00000000      20.00000179
C        1.23000011       0.69593802      20.00000179
C        1.23000011       0.69593802      23.00000229
C        2.46000021       1.39187628      23.00000229
4
Lattice="2.4108001253110625 0.0 0.0 1.2054000626555312 2.087813178522513 0.0 0.0 0.0 43.65000251728498" Properties=species:S:1:pos:R:3 energy=-1016.7117949248808 pbc="T T T"
C        0.00000000       0.00000000      20.00000097
C        1.20540006       0.69593797      20.00000097
C        0.00000000       0.00000000      23.65000130
C        1.20540006       0.69593797      23.65000130
4
Lattice="2.4108001253110625 0.0 0.0 1.2054000626555312 2.087813178522513 0.0 0.0 0.0 43.65000251728498" Properties=species:S:1:pos:R:3 energy=-1016.7209488344132 pbc="T T T"
C        0.00000000       0.00000000      20.00000097
C        1.20540006       0.69593797      20.00000097
C        1.20540006       0.00000000      23.65000130
C        2.41080013       0.69593797      23.65000130
4
Lattice="2.435399986195794 0.0 0.0 1.2053987877676218 2.0878148293659575 0.0 0.0 0.0 43.65000029618537" Properties=species:S:1:pos:R:3 energy=-1016.7770369388369 pbc="T T T"
C        0.00000000       0.00000000      19.99999980
C        1.21360000       0.69593795      19.99999980
C        1.21360000       0.69593795      23.64999976
C        2.42719999       1.39187590      23.64999976
4
Lattice="2.435399986195794 0.0 0.0 1.2053987877676218 2.0878148293659575 0.0 0.0 0.0 43.65000029618537" Properties=species:S:1:pos:R:3 energy=-1016.7760176003973 pbc="T T T"
C        0.00000000       0.00000000      19.99999980
C        1.21360000       0.69593795      19.99999980
C        1.21769999       0.00000000      23.64999976
C        2.43129999       0.69593795      23.64999976
4
Lattice="2.435399986195794 0.0 0.0 1.217699993097897 2.1091172730452126 0.0 0.0 0.0 43.65000029618537" Properties=species:S:1:pos:R:3 energy=-1016.8310866384952 pbc="T T T"
C        0.00000000       0.00000000      19.99999980
C        1.21769999       0.70303933      19.99999980
C        1.21769999       0.70303933      23.64999976
C        2.43539999       1.40607891      23.64999976
4
Lattice="2.435399986195794 0.0 0.0 1.217699993097897 2.1091172730452126 0.0 0.0 0.0 43.65000029618537" Properties=species:S:1:pos:R:3 energy=-1016.8298663439857 pbc="T T T"
C        0.00000000       0.00000000      19.99999980
C        1.21769999       0.70303933      19.99999980
C        1.21769999       0.00000000      23.64999976
C        2.43539999       0.70303933      23.64999976
4
Lattice="2.4599998470805247 0.0 0.0 1.2053999250694571 2.0878141702164768 0.0 0.0 0.0 43.64999620661181" Properties=species:S:1:pos:R:3 energy=-1016.8025934623927 pbc="T T T"
C        0.00000000       0.00000000      19.99999875
C        1.22180001       0.69593789      19.99999875
C        1.22180001       0.69593789      23.64999844
C        2.44359977       1.39187603      23.64999844
4
Lattice="2.4846002371424643 0.0 0.0 1.2054013204494294 2.087814548471287 0.0 0.0 0.0 43.00000482553191" Properties=species:S:1:pos:R:3 energy=-1016.6717079305116 pbc="T T T"
C        0.00000000       0.00000000      20.00000179
C        1.23000011       0.69593802      20.00000179
C        0.00000000       0.00000000      23.00000229
C        1.23000011       0.69593802      23.00000229
4
Lattice="2.4599998470805247 0.0 0.0 1.2053999250694571 2.0878141702164768 0.0 0.0 0.0 43.64999620661181" Properties=species:S:1:pos:R:3 energy=-1016.7918878236954 pbc="T T T"
C        0.00000000       0.00000000      19.99999875
C        1.22180001       0.69593789      19.99999875
C        0.00000000       0.00000000      23.64999844
C        1.22180001       0.69593789      23.64999844
4
Lattice="2.4599998470805247 0.0 0.0 1.2176999243048596 2.1091177688921943 0.0 0.0 0.0 43.64999620661181" Properties=species:S:1:pos:R:3 energy=-1016.8447784544578 pbc="T T T"
C        0.00000000       0.00000000      19.99999875
C        1.22589984       0.70303942      19.99999875
C        0.00000000       0.00000000      23.64999844
C        1.22589984       0.70303942      23.64999844
4
Lattice="2.4599998470805247 0.0 0.0 1.2176999243048596 2.1091177688921943 0.0 0.0 0.0 43.64999620661181" Properties=species:S:1:pos:R:3 energy=-1016.8547786380285 pbc="T T T"
C        0.00000000       0.00000000      19.99999875
C        1.22589984       0.70303942      19.99999875
C        1.22999992       0.00000000      23.64999844
C        2.45589977       0.70303942      23.64999844
4
Lattice="2.4599998470805247 0.0 0.0 1.2299999235402623 2.1304213675679113 0.0 0.0 0.0 43.64999620661181" Properties=species:S:1:pos:R:3 energy=-1016.8685730409082 pbc="T T T"
C        0.00000000       0.00000000      19.99999875
C        1.22999992       0.71014070      19.99999875
C        0.00000000       0.00000000      23.64999844
C        1.22999992       0.71014070      23.64999844
4
Lattice="2.4846002371424643 0.0 0.0 1.2054013204494294 2.087814548471287 0.0 0.0 0.0 43.65000357817098" Properties=species:S:1:pos:R:3 energy=-1016.80056553401 pbc="T T T"
C        0.00000000       0.00000000      20.00000179
C        1.23000011       0.69593802      20.00000179
C        1.23000011       0.69593802      23.65000228
C        2.46000021       1.39187628      23.65000228
4
Lattice="2.4846002371424643 0.0 0.0 1.2054013204494294 2.087814548471287 0.0 0.0 0.0 43.65000357817098" Properties=species:S:1:pos:R:3 energy=-1016.7896896881066 pbc="T T T"
C        0.00000000       0.00000000      20.00000179
C        1.23000011       0.69593802      20.00000179
C        0.00000000       0.00000000      23.65000228
C        1.23000011       0.69593802      23.65000228
4
Lattice="2.4846002371424643 0.0 0.0 1.2054013204494294 2.087814548471287 0.0 0.0 0.0 43.10000501587641" Properties=species:S:1:pos:R:3 energy=-1016.7195411895258 pbc="T T T"
C        0.00000000       0.00000000      20.00000179
C        1.23000011       0.69593802      20.00000179
C        0.00000000       0.00000000      23.10000223
C        1.23000011       0.69593802      23.10000223
4
Lattice="2.4108001253110625 0.0 0.0 1.2054000626555312 2.087813178522513 0.0 0.0 0.0 43.10000257669652" Properties=species:S:1:pos:R:3 energy=-1016.6485231511735 pbc="T T T"
C        0.00000000       0.00000000      20.00000097
C        1.20540006       0.69593797      20.00000097
C        0.00000000       0.00000000      23.10000112
C        1.20540006       0.69593797      23.10000112
4
Lattice="2.4108001253110625 0.0 0.0 1.2054000626555312 2.087813178522513 0.0 0.0 0.0 43.000002587498614" Properties=species:S:1:pos:R:3 energy=-1016.6730227845799 pbc="T T T"
C        0.00000000       0.00000000      20.00000097
C        1.20540006       0.69593797      20.00000097
C        1.20540006       0.00000000      23.00000113
C        2.41080013       0.69593797      23.00000113
4
Lattice="2.4846002371424643 0.0 0.0 1.2054013204494294 2.087814548471287 0.0 0.0 0.0 43.00000482553191" Properties=species:S:1:pos:R:3 energy=-1016.7490811875656 pbc="T T T"
C        0.00000000       0.00000000      20.00000179
C        1.23000011       0.69593802      20.00000179
C        1.24230012       0.00000000      23.00000229
C        2.47230022       0.69593802      23.00000229
4
Lattice="2.4846002371424643 0.0 0.0 1.2054013204494294 2.087814548471287 0.0 0.0 0.0 43.65000357817098" Properties=species:S:1:pos:R:3 energy=-1016.7995041539824 pbc="T T T"
C        0.00000000       0.00000000      20.00000179
C        1.23000011       0.69593802      20.00000179
C        1.24230012       0.00000000      23.65000228
C        2.47230022       0.69593802      23.65000228
4
Lattice="2.4846002371424643 0.0 0.0 1.2177000916232845 2.1091175109045466 0.0 0.0 0.0 43.65000357817098" Properties=species:S:1:pos:R:3 energy=-1016.8532337117095 pbc="T T T"
C        0.00000000       0.00000000      20.00000179
C        1.23410019       0.70303950      20.00000179
C        1.23410019       0.70303950      23.65000228
C        2.46820014       1.40607900      23.65000228
4
Lattice="2.4846002371424643 0.0 0.0 1.2177000916232845 2.1091175109045466 0.0 0.0 0.0 43.65000357817098" Properties=species:S:1:pos:R:3 energy=-1016.8520841667981 pbc="T T T"
C        0.00000000       0.00000000      20.00000179
C        1.23410019       0.70303950      20.00000179
C        1.24230012       0.00000000      23.65000228
C        2.47640031       0.70303950      23.65000228
4
Lattice="2.4846002371424643 0.0 0.0 1.230001347397377 2.130422957938043 0.0 0.0 0.0 43.65000357817098" Properties=species:S:1:pos:R:3 energy=-1016.876817409935 pbc="T T T"
C        0.00000000       0.00000000      20.00000179
C        1.23820003       0.71014099      20.00000179
C        1.23820003       0.71014099      23.65000228
C        2.47640031       1.42028172      23.65000228
4
Lattice="2.4846002371424643 0.0 0.0 1.230001347397377 2.130422957938043 0.0 0.0 0.0 43.65000357817098" Properties=species:S:1:pos:R:3 energy=-1016.8651629102824 pbc="T T T"
C        0.00000000       0.00000000      20.00000179
C        1.23820003       0.71014099      20.00000179
C        0.00000000       0.00000000      23.65000228
C        1.23820003       0.71014099      23.65000228
4
Lattice="2.4846002371424643 0.0 0.0 1.230001347397377 2.130422957938043 0.0 0.0 0.0 43.65000357817098" Properties=species:S:1:pos:R:3 energy=-1016.8756915389275 pbc="T T T"
C        0.00000000       0.00000000      20.00000179
C        1.23820003       0.71014099      20.00000179
C        1.24230012       0.00000000      23.65000228
C        2.48050015       0.71014099      23.65000228
4
Lattice="2.4846002371424643 0.0 0.0 1.2423001185712321 2.1517259203713026 0.0 0.0 0.0 43.65000357817098" Properties=species:S:1:pos:R:3 energy=-1016.8732071395806 pbc="T T T"
C        0.00000000       0.00000000      20.00000179
C        1.24230012       0.71724222      20.00000179
C        1.24230012       0.71724222      23.65000228
C        2.48460024       1.43448469      23.65000228
4
Lattice="2.4846002371424643 0.0 0.0 1.2423001185712321 2.1517259203713026 0.0 0.0 0.0 43.65000357817098" Properties=species:S:1:pos:R:3 energy=-1016.871881128845 pbc="T T T"
C        0.00000000       0.00000000      20.00000179
C        1.24230012       0.71724222      20.00000179
C        1.24230012       0.00000000      23.65000228
C        2.48460024       0.71724222      23.65000228
4
Lattice="2.4846002371424643 0.0 0.0 1.2054013204494294 2.087814548471287 0.0 0.0 0.0 43.10000501587641" Properties=species:S:1:pos:R:3 energy=-1016.7769675498079 pbc="T T T"
C        0.00000000       0.00000000      20.00000179
C        1.23000011       0.69593802      20.00000179
C        1.24230012       0.00000000      23.10000223
C        2.47230022       0.69593802      23.10000223
4
Lattice="2.4846002371424643 0.0 0.0 1.2177000916232845 2.1091175109045466 0.0 0.0 0.0 43.00000482553191" Properties=species:S:1:pos:R:3 energy=-1016.8085235032216 pbc="T T T"
C        0.00000000       0.00000000      20.00000179
C        1.23410019       0.70303950      20.00000179
C        1.23410019       0.70303950      23.00000229
C        2.46820014       1.40607900      23.00000229
4
Lattice="2.509200098027195 0.0 0.0 1.2053996534914804 2.0878150703649 0.0 0.0 0.0 43.650002248879424" Properties=species:S:1:pos:R:3 energy=-1016.7726942740857 pbc="T T T"
C        0.00000000       0.00000000      20.00000068
C        1.23820017       0.69593794      20.00000068
C        1.23820017       0.69593794      23.65000082
C        2.47640009       1.39187613      23.65000082
4
Lattice="2.509200098027195 0.0 0.0 1.2053996534914804 2.0878150703649 0.0 0.0 0.0 43.650002248879424" Properties=species:S:1:pos:R:3 energy=-1016.7616240028447 pbc="T T T"
C        0.00000000       0.00000000      20.00000068
C        1.23820017       0.69593794      20.00000068
C        0.00000000       0.00000000      23.65000082
C        1.23820017       0.69593794      23.65000082
4
Lattice="2.509200098027195 0.0 0.0 1.2053996534914804 2.0878150703649 0.0 0.0 0.0 43.650002248879424" Properties=species:S:1:pos:R:3 energy=-1016.7717648692698 pbc="T T T"
C        0.00000000       0.00000000      20.00000068
C        1.23820017       0.69593794      20.00000068
C        1.25460005       0.00000000      23.65000082
C        2.49280022       0.69593794      23.65000082
4
Lattice="2.509200098027195 0.0 0.0 1.2176997523720097 2.109118179197151 0.0 0.0 0.0 43.650002248879424" Properties=species:S:1:pos:R:3 energy=-1016.8249228518788 pbc="T T T"
C        0.00000000       0.00000000      20.00000068
C        1.24229995       0.70303948      20.00000068
C        1.24229995       0.70303948      23.65000082
C        2.48460015       1.40607895      23.65000082
4
Lattice="2.509200098027195 0.0 0.0 1.229999851252539 2.1304237972295 0.0 0.0 0.0 43.650002248879424" Properties=species:S:1:pos:R:3 energy=-1016.8481225974781 pbc="T T T"
C        0.00000000       0.00000000      20.00000068
C        1.24639998       0.71014076      20.00000068
C        1.24639998       0.71014076      23.65000082
C        2.49280022       1.42028178      23.65000082
4
Lattice="2.509200098027195 0.0 0.0 1.229999851252539 2.1304237972295 0.0 0.0 0.0 43.650002248879424" Properties=species:S:1:pos:R:3 energy=-1016.8362889108627 pbc="T T T"
C        0.00000000       0.00000000      20.00000068
C        1.24639998       0.71014076      20.00000068
C        0.00000000       0.00000000      23.65000082
C        1.24639998       0.71014076      23.65000082
4
Lattice="2.509200098027195 0.0 0.0 1.2422999501330683 2.151726906061751 0.0 0.0 0.0 43.650002248879424" Properties=species:S:1:pos:R:3 energy=-1016.8441983077539 pbc="T T T"
C        0.00000000       0.00000000      20.00000068
C        1.25050002       0.71724230      20.00000068
C        1.25050002       0.71724230      23.65000082
C        2.50100003       1.43448460      23.65000082
4
Lattice="2.4846002371424643 0.0 0.0 1.2177000916232845 2.1091175109045466 0.0 0.0 0.0 43.10000501587641" Properties=species:S:1:pos:R:3 energy=-1016.8348375917041 pbc="T T T"
C        0.00000000       0.00000000      20.00000179
C        1.23410019       0.70303950      20.00000179
C        1.23410019       0.70303950      23.10000223
C        2.46820014       1.40607900      23.10000223
4
Lattice="2.4846002371424643 0.0 0.0 1.2177000916232845 2.1091175109045466 0.0 0.0 0.0 43.00000482553191" Properties=species:S:1:pos:R:3 energy=-1016.7220650453793 pbc="T T T"
C        0.00000000       0.00000000      20.00000179
C        1.23410019       0.70303950      20.00000179
C        0.00000000       0.00000000      23.00000229
C        1.23410019       0.70303950      23.00000229
4
Lattice="2.509200098027195 0.0 0.0 1.2422999501330683 2.151726906061751 0.0 0.0 0.0 43.650002248879424" Properties=species:S:1:pos:R:3 energy=-1016.8319646137957 pbc="T T T"
C        0.00000000       0.00000000      20.00000068
C        1.25050002       0.71724230      20.00000068
C        0.00000000       0.00000000      23.65000082
C        1.25050002       0.71724230      23.65000082
4
Lattice="2.509200098027195 0.0 0.0 1.2422999501330683 2.151726906061751 0.0 0.0 0.0 43.650002248879424" Properties=species:S:1:pos:R:3 energy=-1016.8430301230446 pbc="T T T"
C        0.00000000       0.00000000      20.00000068
C        1.25050002       0.71724230      20.00000068
C        1.25460005       0.00000000      23.65000082
C        2.50510007       0.71724230      23.65000082
4
Lattice="2.509200098027195 0.0 0.0 1.2546000490135976 2.173030014894002 0.0 0.0 0.0 43.650002248879424" Properties=species:S:1:pos:R:3 energy=-1016.8149581791643 pbc="T T T"
C        0.00000000       0.00000000      20.00000068
C        1.25460005       0.72434359      20.00000068
C        1.25460005       0.72434359      23.65000082
C        2.50920010       1.44868743      23.65000082
4
Lattice="2.509200098027195 0.0 0.0 1.2546000490135976 2.173030014894002 0.0 0.0 0.0 43.650002248879424" Properties=species:S:1:pos:R:3 energy=-1016.8135765211484 pbc="T T T"
C        0.00000000       0.00000000      20.00000068
C        1.25460005       0.72434359      20.00000068
C        1.25460005       0.00000000      23.65000082
C        2.50920010       0.72434359      23.65000082
4
Lattice="2.4108001253110625 0.0 0.0 1.2054000626555312 2.087813178522513 0.0 0.0 0.0 43.750002506482886" Properties=species:S:1:pos:R:3 energy=-1016.7159509195386 pbc="T T T"
C        0.00000000       0.00000000      20.00000097
C        1.20540006       0.69593797      20.00000097
C        1.20540006       0.69593797      23.75000129
C        2.41080013       1.39187618      23.75000129
4
Lattice="2.4108001253110625 0.0 0.0 1.2054000626555312 2.087813178522513 0.0 0.0 0.0 43.750002506482886" Properties=species:S:1:pos:R:3 energy=-1016.7086420778892 pbc="T T T"
C        0.00000000       0.00000000      20.00000097
C        1.20540006       0.69593797      20.00000097
C        0.00000000       0.00000000      23.75000129
C        1.20540006       0.69593797      23.75000129
4
Lattice="2.4108001253110625 0.0 0.0 1.2054000626555312 2.087813178522513 0.0 0.0 0.0 43.750002506482886" Properties=species:S:1:pos:R:3 energy=-1016.7151434217224 pbc="T T T"
C        0.00000000       0.00000000      20.00000097
C        1.20540006       0.69593797      20.00000097
C        1.20540006       0.00000000      23.75000129
C        2.41080013       0.69593797      23.75000129
4
Lattice="2.435399986195794 0.0 0.0 1.2053987877676218 2.0878148293659575 0.0 0.0 0.0 43.75000025501855" Properties=species:S:1:pos:R:3 energy=-1016.7709547863722 pbc="T T T"
C        0.00000000       0.00000000      19.99999980
C        1.21360000       0.69593795      19.99999980
C        1.21360000       0.69593795      23.74999996
C        2.42719999       1.39187590      23.74999996
4
Lattice="2.4846002371424643 0.0 0.0 1.2177000916232845 2.1091175109045466 0.0 0.0 0.0 43.00000482553191" Properties=species:S:1:pos:R:3 energy=-1016.8003049850095 pbc="T T T"
C        0.00000000       0.00000000      20.00000179
C        1.23410019       0.70303950      20.00000179
C        1.24230012       0.00000000      23.00000229
C        2.47640031       0.70303950      23.00000229
4
Lattice="2.435399986195794 0.0 0.0 1.2053987877676218 2.0878148293659575 0.0 0.0 0.0 43.75000025501855" Properties=species:S:1:pos:R:3 energy=-1016.7702252491706 pbc="T T T"
C        0.00000000       0.00000000      19.99999980
C        1.21360000       0.69593795      19.99999980
C        1.21769999       0.00000000      23.74999996
C        2.43129999       0.69593795      23.74999996
4
Lattice="2.435399986195794 0.0 0.0 1.217699993097897 2.1091172730452126 0.0 0.0 0.0 43.75000025501855" Properties=species:S:1:pos:R:3 energy=-1016.82502217343 pbc="T T T"
C        0.00000000       0.00000000      19.99999980
C        1.21769999       0.70303933      19.99999980
C        1.21769999       0.70303933      23.74999996
C        2.43539999       1.40607891      23.74999996
4
Lattice="2.435399986195794 0.0 0.0 1.217699993097897 2.1091172730452126 0.0 0.0 0.0 43.75000025501855" Properties=species:S:1:pos:R:3 energy=-1016.8173208075683 pbc="T T T"
C        0.00000000       0.00000000      19.99999980
C        1.21769999       0.70303933      19.99999980
C        0.00000000       0.00000000      23.74999996
C        1.21769999       0.70303933      23.74999996
4
Lattice="2.435399986195794 0.0 0.0 1.217699993097897 2.1091172730452126 0.0 0.0 0.0 43.75000025501855" Properties=species:S:1:pos:R:3 energy=-1016.824178892644 pbc="T T T"
C        0.00000000       0.00000000      19.99999980
C        1.21769999       0.70303933      19.99999980
C        1.21769999       0.00000000      23.74999996
C        2.43539999       0.70303933      23.74999996
4
Lattice="2.4599998470805247 0.0 0.0 1.2053999250694571 2.0878141702164768 0.0 0.0 0.0 43.749997660395486" Properties=species:S:1:pos:R:3 energy=-1016.7965664129803 pbc="T T T"
C        0.00000000       0.00000000      19.99999875
C        1.22180001       0.69593789      19.99999875
C        1.22180001       0.69593789      23.74999841
C        2.44359977       1.39187603      23.74999841
4
Lattice="2.4599998470805247 0.0 0.0 1.2053999250694571 2.0878141702164768 0.0 0.0 0.0 43.749997660395486" Properties=species:S:1:pos:R:3 energy=-1016.7957961947599 pbc="T T T"
C        0.00000000       0.00000000      19.99999875
C        1.22180001       0.69593789      19.99999875
C        1.22999992       0.00000000      23.74999841
C        2.45179993       0.69593789      23.74999841
4
Lattice="2.4599998470805247 0.0 0.0 1.2176999243048596 2.1091177688921943 0.0 0.0 0.0 43.749997660395486" Properties=species:S:1:pos:R:3 energy=-1016.8498574592564 pbc="T T T"
C        0.00000000       0.00000000      19.99999875
C        1.22589984       0.70303942      19.99999875
C        1.22589984       0.70303942      23.74999841
C        2.45179993       1.40607884      23.74999841
4
Lattice="2.4599998470805247 0.0 0.0 1.2176999243048596 2.1091177688921943 0.0 0.0 0.0 43.749997660395486" Properties=species:S:1:pos:R:3 energy=-1016.8419902400101 pbc="T T T"
C        0.00000000       0.00000000      19.99999875
C        1.22589984       0.70303942      19.99999875
C        0.00000000       0.00000000      23.74999841
C        1.22589984       0.70303942      23.74999841
4
Lattice="2.4599998470805247 0.0 0.0 1.2176999243048596 2.1091177688921943 0.0 0.0 0.0 43.749997660395486" Properties=species:S:1:pos:R:3 energy=-1016.8491015270125 pbc="T T T"
C        0.00000000       0.00000000      19.99999875
C        1.22589984       0.70303942      19.99999875
C        1.22999992       0.00000000      23.74999841
C        2.45589977       0.70303942      23.74999841
4
Lattice="2.4846002371424643 0.0 0.0 1.2177000916232845 2.1091175109045466 0.0 0.0 0.0 43.10000501587641" Properties=species:S:1:pos:R:3 energy=-1016.8287785689157 pbc="T T T"
C        0.00000000       0.00000000      20.00000179
C        1.23410019       0.70303950      20.00000179
C        1.24230012       0.00000000      23.10000223
C        2.47640031       0.70303950      23.10000223
4
Lattice="2.4846002371424643 0.0 0.0 1.230001347397377 2.130422957938043 0.0 0.0 0.0 43.00000482553191" Properties=species:S:1:pos:R:3 energy=-1016.8314003857512 pbc="T T T"
C        0.00000000       0.00000000      20.00000179
C        1.23820003       0.71014099      20.00000179
C        1.23820003       0.71014099      23.00000229
C        2.47640031       1.42028172      23.00000229
4
Lattice="2.4599998470805247 0.0 0.0 1.2299999235402623 2.1304213675679113 0.0 0.0 0.0 43.749997660395486" Properties=species:S:1:pos:R:3 energy=-1016.8739988547942 pbc="T T T"
C        0.00000000       0.00000000      19.99999875
C        1.22999992       0.71014070      19.99999875
C        1.22999992       0.71014070      23.74999841
C        2.45999985       1.42028165      23.74999841
4
Lattice="2.4599998470805247 0.0 0.0 1.2299999235402623 2.1304213675679113 0.0 0.0 0.0 43.749997660395486" Properties=species:S:1:pos:R:3 energy=-1016.8658876854915 pbc="T T T"
C        0.00000000       0.00000000      19.99999875
C        1.22999992       0.71014070      19.99999875
C        0.00000000       0.00000000      23.74999841
C        1.22999992       0.71014070      23.74999841
4
Lattice="2.4599998470805247 0.0 0.0 1.2299999235402623 2.1304213675679113 0.0 0.0 0.0 43.749997660395486" Properties=species:S:1:pos:R:3 energy=-1016.8731201992092 pbc="T T T"
C        0.00000000       0.00000000      19.99999875
C        1.22999992       0.71014070      19.99999875
C        1.22999992       0.00000000      23.74999841
C        2.45999985       0.71014070      23.74999841
4
Lattice="2.4846002371424643 0.0 0.0 1.2054013204494294 2.087814548471287 0.0 0.0 0.0 43.75000376851549" Properties=species:S:1:pos:R:3 energy=-1016.7946193024078 pbc="T T T"
C        0.00000000       0.00000000      20.00000179
C        1.23000011       0.69593802      20.00000179
C        1.23000011       0.69593802      23.75000222
C        2.46000021       1.39187628      23.75000222
4
Lattice="2.4846002371424643 0.0 0.0 1.2054013204494294 2.087814548471287 0.0 0.0 0.0 43.75000376851549" Properties=species:S:1:pos:R:3 energy=-1016.7869005212605 pbc="T T T"
C        0.00000000       0.00000000      20.00000179
C        1.23000011       0.69593802      20.00000179
C        0.00000000       0.00000000      23.75000222
C        1.23000011       0.69593802      23.75000222
4
Lattice="2.4846002371424643 0.0 0.0 1.2177000916232845 2.1091175109045466 0.0 0.0 0.0 43.75000376851549" Properties=species:S:1:pos:R:3 energy=-1016.8393096465854 pbc="T T T"
C        0.00000000       0.00000000      20.00000179
C        1.23410019       0.70303950      20.00000179
C        0.00000000       0.00000000      23.75000222
C        1.23410019       0.70303950      23.75000222
4
Lattice="2.4846002371424643 0.0 0.0 1.2177000916232845 2.1091175109045466 0.0 0.0 0.0 43.75000376851549" Properties=species:S:1:pos:R:3 energy=-1016.8464916831861 pbc="T T T"
C        0.00000000       0.00000000      20.00000179
C        1.23410019       0.70303950      20.00000179
C        1.24230012       0.00000000      23.75000222
C        2.47640031       0.70303950      23.75000222
4
Lattice="2.4846002371424643 0.0 0.0 1.230001347397377 2.130422957938043 0.0 0.0 0.0 43.75000376851549" Properties=species:S:1:pos:R:3 energy=-1016.8709028795948 pbc="T T T"
C        0.00000000       0.00000000      20.00000179
C        1.23820003       0.71014099      20.00000179
C        1.23820003       0.71014099      23.75000222
C        2.47640031       1.42028172      23.75000222
4
Lattice="2.4846002371424643 0.0 0.0 1.230001347397377 2.130422957938043 0.0 0.0 0.0 43.10000501587641" Properties=species:S:1:pos:R:3 energy=-1016.8578991034733 pbc="T T T"
C        0.00000000       0.00000000      20.00000179
C        1.23820003       0.71014099      20.00000179
C        1.23820003       0.71014099      23.10000223
C        2.47640031       1.42028172      23.10000223
4
Lattice="2.4846002371424643 0.0 0.0 1.230001347397377 2.130422957938043 0.0 0.0 0.0 43.00000482553191" Properties=species:S:1:pos:R:3 energy=-1016.7428568556202 pbc="T T T"
C        0.00000000       0.00000000      20.00000179
C        1.23820003       0.71014099      20.00000179
C        0.00000000       0.00000000      23.00000229
C        1.23820003       0.71014099      23.00000229
4
Lattice="2.4846002371424643 0.0 0.0 1.230001347397377 2.130422957938043 0.0 0.0 0.0 43.75000376851549" Properties=species:S:1:pos:R:3 energy=-1016.8701160624306 pbc="T T T"
C        0.00000000       0.00000000      20.00000179
C        1.23820003       0.71014099      20.00000179
C        1.24230012       0.00000000      23.75000222
C        2.48050015       0.71014099      23.75000222
4
Lattice="2.4846002371424643 0.0 0.0 1.2423001185712321 2.1517259203713026 0.0 0.0 0.0 43.75000376851549" Properties=species:S:1:pos:R:3 energy=-1016.8664108243465 pbc="T T T"
C        0.00000000       0.00000000      20.00000179
C        1.24230012       0.71724222      20.00000179
C        1.24230012       0.00000000      23.75000222
C        2.48460024       0.71724222      23.75000222
4
Lattice="2.509200098027195 0.0 0.0 1.2053996534914804 2.0878150703649 0.0 0.0 0.0 43.7500014003861" Properties=species:S:1:pos:R:3 energy=-1016.7668227377321 pbc="T T T"
C        0.00000000       0.00000000      20.00000068
C        1.23820017       0.69593794      20.00000068
C        1.23820017       0.69593794      23.75000098
C        2.47640009       1.39187613      23.75000098
4
Lattice="2.509200098027195 0.0 0.0 1.2053996534914804 2.0878150703649 0.0 0.0 0.0 43.7500014003861" Properties=species:S:1:pos:R:3 energy=-1016.7589557905997 pbc="T T T"
C        0.00000000       0.00000000      20.00000068
C        1.23820017       0.69593794      20.00000068
C        0.00000000       0.00000000      23.75000098
C        1.23820017       0.69593794      23.75000098
4
Lattice="2.509200098027195 0.0 0.0 1.2053996534914804 2.0878150703649 0.0 0.0 0.0 43.7500014003861" Properties=species:S:1:pos:R:3 energy=-1016.766160004478 pbc="T T T"
C        0.00000000       0.00000000      20.00000068
C        1.23820017       0.69593794      20.00000068
C        1.25460005       0.00000000      23.75000098
C        2.49280022       0.69593794      23.75000098
4
Lattice="2.509200098027195 0.0 0.0 1.2176997523720097 2.109118179197151 0.0 0.0 0.0 43.7500014003861" Properties=species:S:1:pos:R:3 energy=-1016.8190741730878 pbc="T T T"
C        0.00000000       0.00000000      20.00000068
C        1.24229995       0.70303948      20.00000068
C        1.24229995       0.70303948      23.75000098
C        2.48460015       1.40607895      23.75000098
4
Lattice="2.509200098027195 0.0 0.0 1.2176997523720097 2.109118179197151 0.0 0.0 0.0 43.7500014003861" Properties=species:S:1:pos:R:3 energy=-1016.8109438197594 pbc="T T T"
C        0.00000000       0.00000000      20.00000068
C        1.24229995       0.70303948      20.00000068
C        0.00000000       0.00000000      23.75000098
C        1.24229995       0.70303948      23.75000098
4
Lattice="2.4846002371424643 0.0 0.0 1.230001347397377 2.130422957938043 0.0 0.0 0.0 43.10000501587641" Properties=species:S:1:pos:R:3 energy=-1016.7927794046877 pbc="T T T"
C        0.00000000       0.00000000      20.00000179
C        1.23820003       0.71014099      20.00000179
C        0.00000000       0.00000000      23.10000223
C        1.23820003       0.71014099      23.10000223
4
Lattice="2.4846002371424643 0.0 0.0 1.230001347397377 2.130422957938043 0.0 0.0 0.0 43.00000482553191" Properties=species:S:1:pos:R:3 energy=-1016.8222954567098 pbc="T T T"
C        0.00000000       0.00000000      20.00000179
C        1.23820003       0.71014099      20.00000179
C        1.24230012       0.00000000      23.00000229
C        2.48050015       0.71014099      23.00000229
4
Lattice="2.509200098027195 0.0 0.0 1.2176997523720097 2.109118179197151 0.0 0.0 0.0 43.7500014003861" Properties=species:S:1:pos:R:3 energy=-1016.8182838184433 pbc="T T T"
C        0.00000000       0.00000000      20.00000068
C        1.24229995       0.70303948      20.00000068
C        1.25460005       0.00000000      23.75000098
C        2.49690000       0.70303948      23.75000098
4
Lattice="2.509200098027195 0.0 0.0 1.229999851252539 2.1304237972295 0.0 0.0 0.0 43.7500014003861" Properties=species:S:1:pos:R:3 energy=-1016.8414340393239 pbc="T T T"
C        0.00000000       0.00000000      20.00000068
C        1.24639998       0.71014076      20.00000068
C        1.25460005       0.00000000      23.75000098
C        2.50100003       0.71014076      23.75000098
4
Lattice="2.509200098027195 0.0 0.0 1.2422999501330683 2.151726906061751 0.0 0.0 0.0 43.7500014003861" Properties=species:S:1:pos:R:3 energy=-1016.8296924632427 pbc="T T T"
C        0.00000000       0.00000000      20.00000068
C        1.25050002       0.71724230      20.00000068
C        0.00000000       0.00000000      23.75000098
C        1.25050002       0.71724230      23.75000098
4
Lattice="2.509200098027195 0.0 0.0 1.2422999501330683 2.151726906061751 0.0 0.0 0.0 43.7500014003861" Properties=species:S:1:pos:R:3 energy=-1016.8375591382613 pbc="T T T"
C        0.00000000       0.00000000      20.00000068
C        1.25050002       0.71724230      20.00000068
C        1.25460005       0.00000000      23.75000098
C        2.50510007       0.71724230      23.75000098
4
Lattice="2.509200098027195 0.0 0.0 1.2546000490135976 2.173030014894002 0.0 0.0 0.0 43.7500014003861" Properties=species:S:1:pos:R:3 energy=-1016.8092146723717 pbc="T T T"
C        0.00000000       0.00000000      20.00000068
C        1.25460005       0.72434359      20.00000068
C        1.25460005       0.72434359      23.75000098
C        2.50920010       1.44868743      23.75000098
4
Lattice="2.509200098027195 0.0 0.0 1.2546000490135976 2.173030014894002 0.0 0.0 0.0 43.7500014003861" Properties=species:S:1:pos:R:3 energy=-1016.8002353238669 pbc="T T T"
C        0.00000000       0.00000000      20.00000068
C        1.25460005       0.72434359      20.00000068
C        0.00000000       0.00000000      23.75000098
C        1.25460005       0.72434359      23.75000098
4
Lattice="2.4846002371424643 0.0 0.0 1.230001347397377 2.130422957938043 0.0 0.0 0.0 43.10000501587641" Properties=species:S:1:pos:R:3 energy=-1016.8513788477284 pbc="T T T"
C        0.00000000       0.00000000      20.00000179
C        1.23820003       0.71014099      20.00000179
C        1.24230012       0.00000000      23.10000223
C        2.48050015       0.71014099      23.10000223
4
Lattice="2.4846002371424643 0.0 0.0 1.2423001185712321 2.1517259203713026 0.0 0.0 0.0 43.00000482553191" Properties=species:S:1:pos:R:3 energy=-1016.8269169020886 pbc="T T T"
C        0.00000000       0.00000000      20.00000179
C        1.24230012       0.71724222      20.00000179
C        1.24230012       0.71724222      23.00000229
C        2.48460024       1.43448469      23.00000229
4
Lattice="2.4108001253110625 0.0 0.0 1.2054000626555312 2.087813178522513 0.0 0.0 0.0 44.50000242546715" Properties=species:S:1:pos:R:3 energy=-1016.6682335810195 pbc="T T T"
C        0.00000000       0.00000000      20.00000097
C        1.20540006       0.69593797      20.00000097
C        1.20540006       0.69593797      24.50000121
C        2.41080013       1.39187618      24.50000121
4
Lattice="2.4108001253110625 0.0 0.0 1.2054000626555312 2.087813178522513 0.0 0.0 0.0 44.50000242546715" Properties=species:S:1:pos:R:3 energy=-1016.6677145238723 pbc="T T T"
C        0.00000000       0.00000000      20.00000097
C        1.20540006       0.69593797      20.00000097
C        0.00000000       0.00000000      24.50000121
C        1.20540006       0.69593797      24.50000121
4
Lattice="2.435399986195794 0.0 0.0 1.2053987877676218 2.0878148293659575 0.0 0.0 0.0 44.49999872856744" Properties=species:S:1:pos:R:3 energy=-1016.7232515977728 pbc="T T T"
C        0.00000000       0.00000000      19.99999980
C        1.21360000       0.69593795      19.99999980
C        1.21360000       0.69593795      24.49999990
C        2.42719999       1.39187590      24.49999990
4
Lattice="2.435399986195794 0.0 0.0 1.2053987877676218 2.0878148293659575 0.0 0.0 0.0 44.49999872856744" Properties=species:S:1:pos:R:3 energy=-1016.7227194791612 pbc="T T T"
C        0.00000000       0.00000000      19.99999980
C        1.21360000       0.69593795      19.99999980
C        0.00000000       0.00000000      24.49999990
C        1.21360000       0.69593795      24.49999990
4
Lattice="2.435399986195794 0.0 0.0 1.2053987877676218 2.0878148293659575 0.0 0.0 0.0 44.49999872856744" Properties=species:S:1:pos:R:3 energy=-1016.7232118691524 pbc="T T T"
C        0.00000000       0.00000000      19.99999980
C        1.21360000       0.69593795      19.99999980
C        1.21769999       0.00000000      24.49999990
C        2.43129999       0.69593795      24.49999990
4
Lattice="2.435399986195794 0.0 0.0 1.217699993097897 2.1091172730452126 0.0 0.0 0.0 44.49999872856744" Properties=species:S:1:pos:R:3 energy=-1016.776751627477 pbc="T T T"
C        0.00000000       0.00000000      19.99999980
C        1.21769999       0.70303933      19.99999980
C        0.00000000       0.00000000      24.49999990
C        1.21769999       0.70303933      24.49999990
4
Lattice="2.435399986195794 0.0 0.0 1.217699993097897 2.1091172730452126 0.0 0.0 0.0 44.49999872856744" Properties=species:S:1:pos:R:3 energy=-1016.7772531332816 pbc="T T T"
C        0.00000000       0.00000000      19.99999980
C        1.21769999       0.70303933      19.99999980
C        1.21769999       0.00000000      24.49999990
C        2.43539999       0.70303933      24.49999990
4
Lattice="2.4599998470805247 0.0 0.0 1.2053999250694571 2.0878141702164768 0.0 0.0 0.0 44.499997493773705" Properties=species:S:1:pos:R:3 energy=-1016.7489411849957 pbc="T T T"
C        0.00000000       0.00000000      19.99999875
C        1.22180001       0.69593789      19.99999875
C        1.22180001       0.69593789      24.49999849
C        2.44359977       1.39187603      24.49999849
4
Lattice="2.4846002371424643 0.0 0.0 1.2423001185712321 2.1517259203713026 0.0 0.0 0.0 43.10000501587641" Properties=species:S:1:pos:R:3 energy=-1016.8536403858413 pbc="T T T"
C        0.00000000       0.00000000      20.00000179
C        1.24230012       0.71724222      20.00000179
C        1.24230012       0.71724222      23.10000223
C        2.48460024       1.43448469      23.10000223
4
Lattice="2.4846002371424643 0.0 0.0 1.2423001185712321 2.1517259203713026 0.0 0.0 0.0 43.00000482553191" Properties=species:S:1:pos:R:3 energy=-1016.7367259947783 pbc="T T T"
C        0.00000000       0.00000000      20.00000179
C        1.24230012       0.71724222      20.00000179
C        0.00000000       0.00000000      23.00000229
C        1.24230012       0.71724222      23.00000229
4
Lattice="2.4599998470805247 0.0 0.0 1.2053999250694571 2.0878141702164768 0.0 0.0 0.0 44.499997493773705" Properties=species:S:1:pos:R:3 energy=-1016.7483969573184 pbc="T T T"
C        0.00000000       0.00000000      19.99999875
C        1.22180001       0.69593789      19.99999875
C        0.00000000       0.00000000      24.49999849
C        1.22180001       0.69593789      24.49999849
4
Lattice="2.4599998470805247 0.0 0.0 1.2053999250694571 2.0878141702164768 0.0 0.0 0.0 44.499997493773705" Properties=species:S:1:pos:R:3 energy=-1016.7489040414566 pbc="T T T"
C        0.00000000       0.00000000      19.99999875
C        1.22180001       0.69593789      19.99999875
C        1.22999992       0.00000000      24.49999849
C        2.45179993       0.69593789      24.49999849
4
Lattice="2.4599998470805247 0.0 0.0 1.2176999243048596 2.1091177688921943 0.0 0.0 0.0 44.499997493773705" Properties=species:S:1:pos:R:3 energy=-1016.8021665157797 pbc="T T T"
C        0.00000000       0.00000000      19.99999875
C        1.22589984       0.70303942      19.99999875
C        1.22589984       0.70303942      24.49999849
C        2.45179993       1.40607884      24.49999849
4
Lattice="2.4599998470805247 0.0 0.0 1.2176999243048596 2.1091177688921943 0.0 0.0 0.0 44.499997493773705" Properties=species:S:1:pos:R:3 energy=-1016.80213603903 pbc="T T T"
C        0.00000000       0.00000000      19.99999875
C        1.22589984       0.70303942      19.99999875
C        1.22999992       0.00000000      24.49999849
C        2.45589977       0.70303942      24.49999849
4
Lattice="2.4599998470805247 0.0 0.0 1.2299999235402623 2.1304213675679113 0.0 0.0 0.0 44.499997493773705" Properties=species:S:1:pos:R:3 energy=-1016.8262919926581 pbc="T T T"
C        0.00000000       0.00000000      19.99999875
C        1.22999992       0.71014070      19.99999875
C        1.22999992       0.71014070      24.49999849
C        2.45999985       1.42028165      24.49999849
4
Lattice="2.4599998470805247 0.0 0.0 1.2299999235402623 2.1304213675679113 0.0 0.0 0.0 44.499997493773705" Properties=species:S:1:pos:R:3 energy=-1016.825696879693 pbc="T T T"
C        0.00000000       0.00000000      19.99999875
C        1.22999992       0.71014070      19.99999875
C        0.00000000       0.00000000      24.49999849
C        1.22999992       0.71014070      24.49999849
4
Lattice="2.4599998470805247 0.0 0.0 1.2299999235402623 2.1304213675679113 0.0 0.0 0.0 44.499997493773705" Properties=species:S:1:pos:R:3 energy=-1016.8262585226558 pbc="T T T"
C        0.00000000       0.00000000      19.99999875
C        1.22999992       0.71014070      19.99999875
C        1.22999992       0.00000000      24.49999849
C        2.45999985       0.71014070      24.49999849
4
Lattice="2.4846002371424643 0.0 0.0 1.2054013204494294 2.087814548471287 0.0 0.0 0.0 44.500005196099316" Properties=species:S:1:pos:R:3 energy=-1016.7465056300829 pbc="T T T"
C        0.00000000       0.00000000      20.00000179
C        1.23000011       0.69593802      20.00000179
C        0.00000000       0.00000000      24.50000241
C        1.23000011       0.69593802      24.50000241
4
Lattice="2.4846002371424643 0.0 0.0 1.2423001185712321 2.1517259203713026 0.0 0.0 0.0 43.10000501587641" Properties=species:S:1:pos:R:3 energy=-1016.7873081477907 pbc="T T T"
C        0.00000000       0.00000000      20.00000179
C        1.24230012       0.71724222      20.00000179
C        0.00000000       0.00000000      23.10000223
C        1.24230012       0.71724222      23.10000223
4
Lattice="2.4846002371424643 0.0 0.0 1.2054013204494294 2.087814548471287 0.0 0.0 0.0 44.500005196099316" Properties=species:S:1:pos:R:3 energy=-1016.7470286328806 pbc="T T T"
C        0.00000000       0.00000000      20.00000179
C        1.23000011       0.69593802      20.00000179
C        1.24230012       0.00000000      24.50000241
C        2.47230022       0.69593802      24.50000241
4
Lattice="2.4846002371424643 0.0 0.0 1.2177000916232845 2.1091175109045466 0.0 0.0 0.0 44.500005196099316" Properties=species:S:1:pos:R:3 energy=-1016.7996923207019 pbc="T T T"
C        0.00000000       0.00000000      20.00000179
C        1.23410019       0.70303950      20.00000179
C        1.23410019       0.70303950      24.50000241
C        2.46820014       1.40607900      24.50000241
4
Lattice="2.4846002371424643 0.0 0.0 1.2177000916232845 2.1091175109045466 0.0 0.0 0.0 44.500005196099316" Properties=species:S:1:pos:R:3 energy=-1016.799112037941 pbc="T T T"
C        0.00000000       0.00000000      20.00000179
C        1.23410019       0.70303950      20.00000179
C        0.00000000       0.00000000      24.50000241
C        1.23410019       0.70303950      24.50000241
4
Lattice="2.4846002371424643 0.0 0.0 1.230001347397377 2.130422957938043 0.0 0.0 0.0 44.500005196099316" Properties=species:S:1:pos:R:3 energy=-1016.8232402359575 pbc="T T T"
C        0.00000000       0.00000000      20.00000179
C        1.23820003       0.71014099      20.00000179
C        1.23820003       0.71014099      24.50000241
C        2.47640031       1.42028172      24.50000241
4
Lattice="2.4846002371424643 0.0 0.0 1.230001347397377 2.130422957938043 0.0 0.0 0.0 44.500005196099316" Properties=species:S:1:pos:R:3 energy=-1016.8232122082322 pbc="T T T"
C        0.00000000       0.00000000      20.00000179
C        1.23820003       0.71014099      20.00000179
C        1.24230012       0.00000000      24.50000241
C        2.48050015       0.71014099      24.50000241
4
Lattice="2.4846002371424643 0.0 0.0 1.2423001185712321 2.1517259203713026 0.0 0.0 0.0 44.500005196099316" Properties=species:S:1:pos:R:3 energy=-1016.8196741841019 pbc="T T T"
C        0.00000000       0.00000000      20.00000179
C        1.24230012       0.71724222      20.00000179
C        1.24230012       0.71724222      24.50000241
C        2.48460024       1.43448469      24.50000241
4
Lattice="2.4846002371424643 0.0 0.0 1.2423001185712321 2.1517259203713026 0.0 0.0 0.0 44.500005196099316" Properties=species:S:1:pos:R:3 energy=-1016.8190412473133 pbc="T T T"
C        0.00000000       0.00000000      20.00000179
C        1.24230012       0.71724222      20.00000179
C        0.00000000       0.00000000      24.50000241
C        1.24230012       0.71724222      24.50000241
4
Lattice="2.435399986195794 0.0 0.0 1.2053987877676218 2.0878148293659575 0.0 0.0 0.0 42.999999346069664" Properties=species:S:1:pos:R:3 energy=-1016.7358945509443 pbc="T T T"
C        0.00000000       0.00000000      19.99999980
C        1.21360000       0.69593795      19.99999980
C        1.21360000       0.69593795      22.99999979
C        2.42719999       1.39187590      22.99999979
4
Lattice="2.509200098027195 0.0 0.0 1.2053996534914804 2.0878150703649 0.0 0.0 0.0 43.00000149108577" Properties=species:S:1:pos:R:3 energy=-1016.727295617586 pbc="T T T"
C        0.00000000       0.00000000      20.00000068
C        1.23820017       0.69593794      20.00000068
C        1.23820017       0.69593794      23.00000082
C        2.47640009       1.39187613      23.00000082
4
Lattice="2.509200098027195 0.0 0.0 1.2053996534914804 2.0878150703649 0.0 0.0 0.0 44.50000130968643" Properties=species:S:1:pos:R:3 energy=-1016.71874471232 pbc="T T T"
C        0.00000000       0.00000000      20.00000068
C        1.23820017       0.69593794      20.00000068
C        0.00000000       0.00000000      24.50000088
C        1.23820017       0.69593794      24.50000088
4
Lattice="2.509200098027195 0.0 0.0 1.2053996534914804 2.0878150703649 0.0 0.0 0.0 44.50000130968643" Properties=species:S:1:pos:R:3 energy=-1016.7192871712573 pbc="T T T"
C        0.00000000       0.00000000      20.00000068
C        1.23820017       0.69593794      20.00000068
C        1.25460005       0.00000000      24.50000088
C        2.49280022       0.69593794      24.50000088
4
Lattice="2.509200098027195 0.0 0.0 1.2176997523720097 2.109118179197151 0.0 0.0 0.0 44.50000130968643" Properties=species:S:1:pos:R:3 energy=-1016.7715380623853 pbc="T T T"
C        0.00000000       0.00000000      20.00000068
C        1.24229995       0.70303948      20.00000068
C        1.24229995       0.70303948      24.50000088
C        2.48460015       1.40607895      24.50000088
4
Lattice="2.509200098027195 0.0 0.0 1.2176997523720097 2.109118179197151 0.0 0.0 0.0 44.50000130968643" Properties=species:S:1:pos:R:3 energy=-1016.7709434936478 pbc="T T T"
C        0.00000000       0.00000000      20.00000068
C        1.24229995       0.70303948      20.00000068
C        0.00000000       0.00000000      24.50000088
C        1.24229995       0.70303948      24.50000088
4
Lattice="2.509200098027195 0.0 0.0 1.2176997523720097 2.109118179197151 0.0 0.0 0.0 44.50000130968643" Properties=species:S:1:pos:R:3 energy=-1016.7715028236431 pbc="T T T"
C        0.00000000       0.00000000      20.00000068
C        1.24229995       0.70303948      20.00000068
C        1.25460005       0.00000000      24.50000088
C        2.49690000       0.70303948      24.50000088
4
Lattice="2.509200098027195 0.0 0.0 1.229999851252539 2.1304237972295 0.0 0.0 0.0 44.50000130968643" Properties=species:S:1:pos:R:3 energy=-1016.7947154946497 pbc="T T T"
C        0.00000000       0.00000000      20.00000068
C        1.24639998       0.71014076      20.00000068
C        1.24639998       0.71014076      24.50000088
C        2.49280022       1.42028178      24.50000088
4
Lattice="2.509200098027195 0.0 0.0 1.229999851252539 2.1304237972295 0.0 0.0 0.0 44.50000130968643" Properties=species:S:1:pos:R:3 energy=-1016.7940927621299 pbc="T T T"
C        0.00000000       0.00000000      20.00000068
C        1.24639998       0.71014076      20.00000068
C        0.00000000       0.00000000      24.50000088
C        1.24639998       0.71014076      24.50000088
4
Lattice="2.509200098027195 0.0 0.0 1.229999851252539 2.1304237972295 0.0 0.0 0.0 44.50000130968643" Properties=species:S:1:pos:R:3 energy=-1016.7946719564355 pbc="T T T"
C        0.00000000       0.00000000      20.00000068
C        1.24639998       0.71014076      20.00000068
C        1.25460005       0.00000000      24.50000088
C        2.50100003       0.71014076      24.50000088
4
Lattice="2.509200098027195 0.0 0.0 1.2422999501330683 2.151726906061751 0.0 0.0 0.0 44.50000130968643" Properties=species:S:1:pos:R:3 energy=-1016.790775014152 pbc="T T T"
C        0.00000000       0.00000000      20.00000068
C        1.25050002       0.71724230      20.00000068
C        1.25050002       0.71724230      24.50000088
C        2.50100003       1.43448460      24.50000088
4
Lattice="2.509200098027195 0.0 0.0 1.2053996534914804 2.0878150703649 0.0 0.0 0.0 43.10000064259245" Properties=species:S:1:pos:R:3 energy=-1016.7537743349409 pbc="T T T"
C        0.00000000       0.00000000      20.00000068
C        1.23820017       0.69593794      20.00000068
C        1.23820017       0.69593794      23.10000097
C        2.47640009       1.39187613      23.10000097
4
Lattice="2.509200098027195 0.0 0.0 1.2422999501330683 2.151726906061751 0.0 0.0 0.0 44.50000130968643" Properties=species:S:1:pos:R:3 energy=-1016.7907278024011 pbc="T T T"
C        0.00000000       0.00000000      20.00000068
C        1.25050002       0.71724230      20.00000068
C        1.25460005       0.00000000      24.50000088
C        2.50510007       0.71724230      24.50000088
4
Lattice="2.509200098027195 0.0 0.0 1.2546000490135976 2.173030014894002 0.0 0.0 0.0 44.50000130968643" Properties=species:S:1:pos:R:3 energy=-1016.760886438285 pbc="T T T"
C        0.00000000       0.00000000      20.00000068
C        1.25460005       0.72434359      20.00000068
C        0.00000000       0.00000000      24.50000088
C        1.25460005       0.72434359      24.50000088
4
Lattice="2.509200098027195 0.0 0.0 1.2546000490135976 2.173030014894002 0.0 0.0 0.0 44.50000130968643" Properties=species:S:1:pos:R:3 energy=-1016.7615068578372 pbc="T T T"
C        0.00000000       0.00000000      20.00000068
C        1.25460005       0.72434359      20.00000068
C        1.25460005       0.00000000      24.50000088
C        2.50920010       0.72434359      24.50000088
4
Lattice="2.4108001253110625 0.0 0.0 1.2054000626555312 2.087813178522513 0.0 0.0 0.0 46.0000022634357" Properties=species:S:1:pos:R:3 energy=-1016.627779505082 pbc="T T T"
C        0.00000000       0.00000000      20.00000097
C        1.20540006       0.69593797      20.00000097
C        0.00000000       0.00000000      26.00000129
C        1.20540006       0.69593797      26.00000129
4
Lattice="2.4108001253110625 0.0 0.0 1.2054000626555312 2.087813178522513 0.0 0.0 0.0 46.0000022634357" Properties=species:S:1:pos:R:3 energy=-1016.6277786887404 pbc="T T T"
C        0.00000000       0.00000000      20.00000097
C        1.20540006       0.69593797      20.00000097
C        1.20540006       0.00000000      26.00000129
C        2.41080013       0.69593797      26.00000129
4
Lattice="2.435399986195794 0.0 0.0 1.2053987877676218 2.0878148293659575 0.0 0.0 0.0 46.000000546465216" Properties=species:S:1:pos:R:3 energy=-1016.6826315323937 pbc="T T T"
C        0.00000000       0.00000000      19.99999980
C        1.21360000       0.69593795      19.99999980
C        1.21360000       0.69593795      25.99999977
C        2.42719999       1.39187590      25.99999977
4
Lattice="2.435399986195794 0.0 0.0 1.2053987877676218 2.0878148293659575 0.0 0.0 0.0 46.000000546465216" Properties=species:S:1:pos:R:3 energy=-1016.6826180627586 pbc="T T T"
C        0.00000000       0.00000000      19.99999980
C        1.21360000       0.69593795      19.99999980
C        0.00000000       0.00000000      25.99999977
C        1.21360000       0.69593795      25.99999977
4
Lattice="2.509200098027195 0.0 0.0 1.2053996534914804 2.0878150703649 0.0 0.0 0.0 43.00000149108577" Properties=species:S:1:pos:R:3 energy=-1016.7203240610396 pbc="T T T"
C        0.00000000       0.00000000      20.00000068
C        1.23820017       0.69593794      20.00000068
C        1.25460005       0.00000000      23.00000082
C        2.49280022       0.69593794      23.00000082
4
Lattice="2.435399986195794 0.0 0.0 1.2053987877676218 2.0878148293659575 0.0 0.0 0.0 46.000000546465216" Properties=species:S:1:pos:R:3 energy=-1016.6826248656046 pbc="T T T"
C        0.00000000       0.00000000      19.99999980
C        1.21360000       0.69593795      19.99999980
C        1.21769999       0.00000000      25.99999977
C        2.43129999       0.69593795      25.99999977
4
Lattice="2.435399986195794 0.0 0.0 1.217699993097897 2.1091172730452126 0.0 0.0 0.0 46.000000546465216" Properties=species:S:1:pos:R:3 energy=-1016.7364849019173 pbc="T T T"
C        0.00000000       0.00000000      19.99999980
C        1.21769999       0.70303933      19.99999980
C        0.00000000       0.00000000      25.99999977
C        1.21769999       0.70303933      25.99999977
4
Lattice="2.435399986195794 0.0 0.0 1.217699993097897 2.1091172730452126 0.0 0.0 0.0 46.000000546465216" Properties=species:S:1:pos:R:3 energy=-1016.736473881307 pbc="T T T"
C        0.00000000       0.00000000      19.99999980
C        1.21769999       0.70303933      19.99999980
C        1.21769999       0.00000000      25.99999977
C        2.43539999       0.70303933      25.99999977
4
Lattice="2.4599998470805247 0.0 0.0 1.2053999250694571 2.0878141702164768 0.0 0.0 0.0 45.99999716053013" Properties=species:S:1:pos:R:3 energy=-1016.7081332250108 pbc="T T T"
C        0.00000000       0.00000000      19.99999875
C        1.22180001       0.69593789      19.99999875
C        1.22180001       0.69593789      25.99999841
C        2.44359977       1.39187603      25.99999841
4
Lattice="2.4599998470805247 0.0 0.0 1.2053999250694571 2.0878141702164768 0.0 0.0 0.0 45.99999716053013" Properties=species:S:1:pos:R:3 energy=-1016.708131456271 pbc="T T T"
C        0.00000000       0.00000000      19.99999875
C        1.22180001       0.69593789      19.99999875
C        0.00000000       0.00000000      25.99999841
C        1.22180001       0.69593789      25.99999841
4
Lattice="2.4599998470805247 0.0 0.0 1.2053999250694571 2.0878141702164768 0.0 0.0 0.0 45.99999716053013" Properties=species:S:1:pos:R:3 energy=-1016.7081307759864 pbc="T T T"
C        0.00000000       0.00000000      19.99999875
C        1.22180001       0.69593789      19.99999875
C        1.22999992       0.00000000      25.99999841
C        2.45179993       0.69593789      25.99999841
4
Lattice="2.4599998470805247 0.0 0.0 1.2176999243048596 2.1091177688921943 0.0 0.0 0.0 45.99999716053013" Properties=species:S:1:pos:R:3 energy=-1016.7611819539138 pbc="T T T"
C        0.00000000       0.00000000      19.99999875
C        1.22589984       0.70303942      19.99999875
C        1.22589984       0.70303942      25.99999841
C        2.45179993       1.40607884      25.99999841
4
Lattice="2.4599998470805247 0.0 0.0 1.2176999243048596 2.1091177688921943 0.0 0.0 0.0 45.99999716053013" Properties=species:S:1:pos:R:3 energy=-1016.7611724299294 pbc="T T T"
C        0.00000000       0.00000000      19.99999875
C        1.22589984       0.70303942      19.99999875
C        0.00000000       0.00000000      25.99999841
C        1.22589984       0.70303942      25.99999841
4
Lattice="2.4599998470805247 0.0 0.0 1.2176999243048596 2.1091177688921943 0.0 0.0 0.0 45.99999716053013" Properties=species:S:1:pos:R:3 energy=-1016.7611801851738 pbc="T T T"
C        0.00000000       0.00000000      19.99999875
C        1.22589984       0.70303942      19.99999875
C        1.22999992       0.00000000      25.99999841
C        2.45589977       0.70303942      25.99999841
4
Lattice="2.509200098027195 0.0 0.0 1.2053996534914804 2.0878150703649 0.0 0.0 0.0 43.10000064259245" Properties=species:S:1:pos:R:3 energy=-1016.7483460720306 pbc="T T T"
C        0.00000000       0.00000000      20.00000068
C        1.23820017       0.69593794      20.00000068
C        1.25460005       0.00000000      23.10000097
C        2.49280022       0.69593794      23.10000097
4
Lattice="2.4599998470805247 0.0 0.0 1.2299999235402623 2.1304213675679113 0.0 0.0 0.0 45.99999716053013" Properties=species:S:1:pos:R:3 energy=-1016.7851476999687 pbc="T T T"
C        0.00000000       0.00000000      19.99999875
C        1.22999992       0.71014070      19.99999875
C        1.22999992       0.00000000      25.99999841
C        2.45999985       0.71014070      25.99999841
4
Lattice="2.4846002371424643 0.0 0.0 1.2054013204494294 2.087814548471287 0.0 0.0 0.0 46.00000556666673" Properties=species:S:1:pos:R:3 energy=-1016.7060901943103 pbc="T T T"
C        0.00000000       0.00000000      20.00000179
C        1.23000011       0.69593802      20.00000179
C        1.23000011       0.69593802      26.00000253
C        2.46000021       1.39187628      26.00000253
4
Lattice="2.4846002371424643 0.0 0.0 1.2054013204494294 2.087814548471287 0.0 0.0 0.0 46.00000556666673" Properties=species:S:1:pos:R:3 energy=-1016.7060866568303 pbc="T T T"
C        0.00000000       0.00000000      20.00000179
C        1.23000011       0.69593802      20.00000179
C        1.24230012       0.00000000      26.00000253
C        2.47230022       0.69593802      26.00000253
4
Lattice="2.4846002371424643 0.0 0.0 1.2177000916232845 2.1091175109045466 0.0 0.0 0.0 46.00000556666673" Properties=species:S:1:pos:R:3 energy=-1016.7585394564264 pbc="T T T"
C        0.00000000       0.00000000      20.00000179
C        1.23410019       0.70303950      20.00000179
C        1.23410019       0.70303950      26.00000253
C        2.46820014       1.40607900      26.00000253
4
Lattice="2.4846002371424643 0.0 0.0 1.2177000916232845 2.1091175109045466 0.0 0.0 0.0 46.00000556666673" Properties=species:S:1:pos:R:3 energy=-1016.7585330617515 pbc="T T T"
C        0.00000000       0.00000000      20.00000179
C        1.23410019       0.70303950      20.00000179
C        1.24230012       0.00000000      26.00000253
C        2.47640031       0.70303950      26.00000253
4
Lattice="2.509200098027195 0.0 0.0 1.2176997523720097 2.109118179197151 0.0 0.0 0.0 43.10000064259245" Properties=species:S:1:pos:R:3 energy=-1016.8054550115198 pbc="T T T"
C        0.00000000       0.00000000      20.00000068
C        1.24229995       0.70303948      20.00000068
C        1.24229995       0.70303948      23.10000097
C        2.48460015       1.40607895      23.10000097
4
Lattice="2.509200098027195 0.0 0.0 1.2176997523720097 2.109118179197151 0.0 0.0 0.0 43.00000149108577" Properties=species:S:1:pos:R:3 energy=-1016.6910692383027 pbc="T T T"
C        0.00000000       0.00000000      20.00000068
C        1.24229995       0.70303948      20.00000068
C        0.00000000       0.00000000      23.00000082
C        1.24229995       0.70303948      23.00000082
4
Lattice="2.4846002371424643 0.0 0.0 1.230001347397377 2.130422957938043 0.0 0.0 0.0 46.00000556666673" Properties=species:S:1:pos:R:3 energy=-1016.7819084568334 pbc="T T T"
C        0.00000000       0.00000000      20.00000179
C        1.23820003       0.71014099      20.00000179
C        1.24230012       0.00000000      26.00000253
C        2.48050015       0.71014099      26.00000253
4
Lattice="2.4846002371424643 0.0 0.0 1.2423001185712321 2.1517259203713026 0.0 0.0 0.0 46.00000556666673" Properties=species:S:1:pos:R:3 energy=-1016.7781606329335 pbc="T T T"
C        0.00000000       0.00000000      20.00000179
C        1.24230012       0.71724222      20.00000179
C        1.24230012       0.71724222      26.00000253
C        2.48460024       1.43448469      26.00000253
4
Lattice="2.4846002371424643 0.0 0.0 1.2423001185712321 2.1517259203713026 0.0 0.0 0.0 46.00000556666673" Properties=species:S:1:pos:R:3 energy=-1016.7781489320384 pbc="T T T"
C        0.00000000       0.00000000      20.00000179
C        1.24230012       0.71724222      20.00000179
C        1.24230012       0.00000000      26.00000253
C        2.48460024       0.71724222      26.00000253
4
Lattice="2.509200098027195 0.0 0.0 1.2053996534914804 2.0878150703649 0.0 0.0 0.0 46.00000112828709" Properties=species:S:1:pos:R:3 energy=-1016.6781830153592 pbc="T T T"
C        0.00000000       0.00000000      20.00000068
C        1.23820017       0.69593794      20.00000068
C        1.23820017       0.69593794      26.00000095
C        2.47640009       1.39187613      26.00000095
4
Lattice="2.509200098027195 0.0 0.0 1.2053996534914804 2.0878150703649 0.0 0.0 0.0 46.00000112828709" Properties=species:S:1:pos:R:3 energy=-1016.6781794778794 pbc="T T T"
C        0.00000000       0.00000000      20.00000068
C        1.23820017       0.69593794      20.00000068
C        0.00000000       0.00000000      26.00000095
C        1.23820017       0.69593794      26.00000095
4
Lattice="2.509200098027195 0.0 0.0 1.2053996534914804 2.0878150703649 0.0 0.0 0.0 46.00000112828709" Properties=species:S:1:pos:R:3 energy=-1016.6781768927979 pbc="T T T"
C        0.00000000       0.00000000      20.00000068
C        1.23820017       0.69593794      20.00000068
C        1.25460005       0.00000000      26.00000095
C        2.49280022       0.69593794      26.00000095
4
Lattice="2.509200098027195 0.0 0.0 1.2176997523720097 2.109118179197151 0.0 0.0 0.0 46.00000112828709" Properties=species:S:1:pos:R:3 energy=-1016.7302219298067 pbc="T T T"
C        0.00000000       0.00000000      20.00000068
C        1.24229995       0.70303948      20.00000068
C        1.24229995       0.70303948      26.00000095
C        2.48460015       1.40607895      26.00000095
4
Lattice="2.509200098027195 0.0 0.0 1.2176997523720097 2.109118179197151 0.0 0.0 0.0 46.00000112828709" Properties=species:S:1:pos:R:3 energy=-1016.7302088683426 pbc="T T T"
C        0.00000000       0.00000000      20.00000068
C        1.24229995       0.70303948      20.00000068
C        0.00000000       0.00000000      26.00000095
C        1.24229995       0.70303948      26.00000095
4
Lattice="2.509200098027195 0.0 0.0 1.2176997523720097 2.109118179197151 0.0 0.0 0.0 43.00000149108577" Properties=species:S:1:pos:R:3 energy=-1016.7711870355334 pbc="T T T"
C        0.00000000       0.00000000      20.00000068
C        1.24229995       0.70303948      20.00000068
C        1.25460005       0.00000000      23.00000082
C        2.49690000       0.70303948      23.00000082
4
Lattice="2.509200098027195 0.0 0.0 1.2176997523720097 2.109118179197151 0.0 0.0 0.0 46.00000112828709" Properties=species:S:1:pos:R:3 energy=-1016.7302178480992 pbc="T T T"
C        0.00000000       0.00000000      20.00000068
C        1.24229995       0.70303948      20.00000068
C        1.25460005       0.00000000      26.00000095
C        2.49690000       0.70303948      26.00000095
4
Lattice="2.509200098027195 0.0 0.0 1.229999851252539 2.1304237972295 0.0 0.0 0.0 46.00000112828709" Properties=species:S:1:pos:R:3 energy=-1016.7532116035226 pbc="T T T"
C        0.00000000       0.00000000      20.00000068
C        1.24639998       0.71014076      20.00000068
C        1.24639998       0.71014076      26.00000095
C        2.49280022       1.42028178      26.00000095
4
Lattice="2.509200098027195 0.0 0.0 1.229999851252539 2.1304237972295 0.0 0.0 0.0 46.00000112828709" Properties=species:S:1:pos:R:3 energy=-1016.7532133722626 pbc="T T T"
C        0.00000000       0.00000000      20.00000068
C        1.24639998       0.71014076      20.00000068
C        1.25460005       0.00000000      26.00000095
C        2.50100003       0.71014076      26.00000095
4
Lattice="2.509200098027195 0.0 0.0 1.2422999501330683 2.151726906061751 0.0 0.0 0.0 46.00000112828709" Properties=species:S:1:pos:R:3 energy=-1016.7490947932577 pbc="T T T"
C        0.00000000       0.00000000      20.00000068
C        1.25050002       0.71724230      20.00000068
C        1.25050002       0.71724230      26.00000095
C        2.50100003       1.43448460      26.00000095
4
Lattice="2.509200098027195 0.0 0.0 1.2422999501330683 2.151726906061751 0.0 0.0 0.0 46.00000112828709" Properties=species:S:1:pos:R:3 energy=-1016.7491047254127 pbc="T T T"
C        0.00000000       0.00000000      20.00000068
C        1.25050002       0.71724230      20.00000068
C        1.25460005       0.00000000      26.00000095
C        2.50510007       0.71724230      26.00000095
4
Lattice="2.509200098027195 0.0 0.0 1.2546000490135976 2.173030014894002 0.0 0.0 0.0 46.00000112828709" Properties=species:S:1:pos:R:3 energy=-1016.7197229615699 pbc="T T T"
C        0.00000000       0.00000000      20.00000068
C        1.25460005       0.72434359      20.00000068
C        1.25460005       0.72434359      26.00000095
C        2.50920010       1.44868743      26.00000095
4
Lattice="2.509200098027195 0.0 0.0 1.2176997523720097 2.109118179197151 0.0 0.0 0.0 43.10000064259245" Properties=species:S:1:pos:R:3 energy=-1016.7996233398437 pbc="T T T"
C        0.00000000       0.00000000      20.00000068
C        1.24229995       0.70303948      20.00000068
C        1.25460005       0.00000000      23.10000097
C        2.49690000       0.70303948      23.10000097
4
Lattice="2.509200098027195 0.0 0.0 1.229999851252539 2.1304237972295 0.0 0.0 0.0 43.00000149108577" Properties=species:S:1:pos:R:3 energy=-1016.8013776577615 pbc="T T T"
C        0.00000000       0.00000000      20.00000068
C        1.24639998       0.71014076      20.00000068
C        1.24639998       0.71014076      23.00000082
C        2.49280022       1.42028178      23.00000082
4
Lattice="2.4108001253110625 0.0 0.0 1.2054000626555312 2.087813178522513 0.0 0.0 0.0 47.00000215541473" Properties=species:S:1:pos:R:3 energy=-1016.6197106494814 pbc="T T T"
C        0.00000000       0.00000000      20.00000097
C        1.20540006       0.69593797      20.00000097
C        1.20540006       0.69593797      27.00000142
C        2.41080013       1.39187618      27.00000142
4
Lattice="2.4108001253110625 0.0 0.0 1.2054000626555312 2.087813178522513 0.0 0.0 0.0 47.00000215541473" Properties=species:S:1:pos:R:3 energy=-1016.6197181326119 pbc="T T T"
C        0.00000000       0.00000000      20.00000097
C        1.20540006       0.69593797      20.00000097
C        0.00000000       0.00000000      27.00000142
C        1.20540006       0.69593797      27.00000142
4
Lattice="2.4108001253110625 0.0 0.0 1.2054000626555312 2.087813178522513 0.0 0.0 0.0 47.00000215541473" Properties=species:S:1:pos:R:3 energy=-1016.6197125542782 pbc="T T T"
C        0.00000000       0.00000000      20.00000097
C        1.20540006       0.69593797      20.00000097
C        1.20540006       0.00000000      27.00000142
C        2.41080013       0.69593797      27.00000142
4
Lattice="2.435399986195794 0.0 0.0 1.2053987877676218 2.0878148293659575 0.0 0.0 0.0 47.00000013479707" Properties=species:S:1:pos:R:3 energy=-1016.6745135602449 pbc="T T T"
C        0.00000000       0.00000000      19.99999980
C        1.21360000       0.69593795      19.99999980
C        1.21360000       0.69593795      26.99999984
C        2.42719999       1.39187590      26.99999984
4
Lattice="2.435399986195794 0.0 0.0 1.2053987877676218 2.0878148293659575 0.0 0.0 0.0 47.00000013479707" Properties=species:S:1:pos:R:3 energy=-1016.6745143765864 pbc="T T T"
C        0.00000000       0.00000000      19.99999980
C        1.21360000       0.69593795      19.99999980
C        0.00000000       0.00000000      26.99999984
C        1.21360000       0.69593795      26.99999984
4
Lattice="2.435399986195794 0.0 0.0 1.217699993097897 2.1091172730452126 0.0 0.0 0.0 47.00000013479707" Properties=species:S:1:pos:R:3 energy=-1016.7283341400512 pbc="T T T"
C        0.00000000       0.00000000      19.99999980
C        1.21769999       0.70303933      19.99999980
C        1.21769999       0.70303933      26.99999984
C        2.43539999       1.40607891      26.99999984
4
Lattice="2.435399986195794 0.0 0.0 1.217699993097897 2.1091172730452126 0.0 0.0 0.0 47.00000013479707" Properties=species:S:1:pos:R:3 energy=-1016.7283393102142 pbc="T T T"
C        0.00000000       0.00000000      19.99999980
C        1.21769999       0.70303933      19.99999980
C        0.00000000       0.00000000      26.99999984
C        1.21769999       0.70303933      26.99999984
4
Lattice="2.435399986195794 0.0 0.0 1.217699993097897 2.1091172730452126 0.0 0.0 0.0 47.00000013479707" Properties=species:S:1:pos:R:3 energy=-1016.728325704522 pbc="T T T"
C        0.00000000       0.00000000      19.99999980
C        1.21769999       0.70303933      19.99999980
C        1.21769999       0.00000000      26.99999984
C        2.43539999       0.70303933      26.99999984
4
Lattice="2.4599998470805247 0.0 0.0 1.2053999250694571 2.0878141702164768 0.0 0.0 0.0 46.99999693836776" Properties=species:S:1:pos:R:3 energy=-1016.6999858645677 pbc="T T T"
C        0.00000000       0.00000000      19.99999875
C        1.22180001       0.69593789      19.99999875
C        1.22180001       0.69593789      26.99999843
C        2.44359977       1.39187603      26.99999843
4
Lattice="2.509200098027195 0.0 0.0 1.229999851252539 2.1304237972295 0.0 0.0 0.0 43.00000149108577" Properties=species:S:1:pos:R:3 energy=-1016.7119270361494 pbc="T T T"
C        0.00000000       0.00000000      20.00000068
C        1.24639998       0.71014076      20.00000068
C        0.00000000       0.00000000      23.00000082
C        1.24639998       0.71014076      23.00000082
4
Lattice="2.4599998470805247 0.0 0.0 1.2053999250694571 2.0878141702164768 0.0 0.0 0.0 46.99999693836776" Properties=species:S:1:pos:R:3 energy=-1016.6999877693645 pbc="T T T"
C        0.00000000       0.00000000      19.99999875
C        1.22180001       0.69593789      19.99999875
C        0.00000000       0.00000000      26.99999843
C        1.22180001       0.69593789      26.99999843
4
Lattice="2.4599998470805247 0.0 0.0 1.2053999250694571 2.0878141702164768 0.0 0.0 0.0 46.99999693836776" Properties=species:S:1:pos:R:3 energy=-1016.6999825992016 pbc="T T T"
C        0.00000000       0.00000000      19.99999875
C        1.22180001       0.69593789      19.99999875
C        1.22999992       0.00000000      26.99999843
C        2.45179993       0.69593789      26.99999843
4
Lattice="2.4599998470805247 0.0 0.0 1.2176999243048596 2.1091177688921943 0.0 0.0 0.0 46.99999693836776" Properties=species:S:1:pos:R:3 energy=-1016.7529822115566 pbc="T T T"
C        0.00000000       0.00000000      19.99999875
C        1.22589984       0.70303942      19.99999875
C        1.22589984       0.70303942      26.99999843
C        2.45179993       1.40607884      26.99999843
4
Lattice="2.4599998470805247 0.0 0.0 1.2176999243048596 2.1091177688921943 0.0 0.0 0.0 46.99999693836776" Properties=species:S:1:pos:R:3 energy=-1016.7529887422887 pbc="T T T"
C        0.00000000       0.00000000      19.99999875
C        1.22589984       0.70303942      19.99999875
C        1.22999992       0.00000000      26.99999843
C        2.45589977       0.70303942      26.99999843
4
Lattice="2.4846002371424643 0.0 0.0 1.2054013204494294 2.087814548471287 0.0 0.0 0.0 47.000004985511595" Properties=species:S:1:pos:R:3 energy=-1016.6978931730915 pbc="T T T"
C        0.00000000       0.00000000      20.00000179
C        1.23000011       0.69593802      20.00000179
C        0.00000000       0.00000000      27.00000269
C        1.23000011       0.69593802      27.00000269
4
Lattice="2.509200098027195 0.0 0.0 1.229999851252539 2.1304237972295 0.0 0.0 0.0 43.10000064259245" Properties=species:S:1:pos:R:3 energy=-1016.7618404694033 pbc="T T T"
C        0.00000000       0.00000000      20.00000068
C        1.24639998       0.71014076      20.00000068
C        0.00000000       0.00000000      23.10000097
C        1.24639998       0.71014076      23.10000097
4
Lattice="2.509200098027195 0.0 0.0 1.229999851252539 2.1304237972295 0.0 0.0 0.0 43.00000149108577" Properties=species:S:1:pos:R:3 energy=-1016.7929225365667 pbc="T T T"
C        0.00000000       0.00000000      20.00000068
C        1.24639998       0.71014076      20.00000068
C        1.25460005       0.00000000      23.00000082
C        2.50100003       0.71014076      23.00000082
4
Lattice="2.4846002371424643 0.0 0.0 1.2054013204494294 2.087814548471287 0.0 0.0 0.0 47.000004985511595" Properties=species:S:1:pos:R:3 energy=-1016.6978878668717 pbc="T T T"
C        0.00000000       0.00000000      20.00000179
C        1.23000011       0.69593802      20.00000179
C        1.24230012       0.00000000      27.00000269
C        2.47230022       0.69593802      27.00000269
4
Lattice="2.4846002371424643 0.0 0.0 1.2177000916232845 2.1091175109045466 0.0 0.0 0.0 47.000004985511595" Properties=species:S:1:pos:R:3 energy=-1016.7503024344735 pbc="T T T"
C        0.00000000       0.00000000      20.00000179
C        1.23410019       0.70303950      20.00000179
C        1.24230012       0.00000000      27.00000269
C        2.47640031       0.70303950      27.00000269
4
Lattice="2.4846002371424643 0.0 0.0 1.230001347397377 2.130422957938043 0.0 0.0 0.0 47.000004985511595" Properties=species:S:1:pos:R:3 energy=-1016.7736261279263 pbc="T T T"
C        0.00000000       0.00000000      20.00000179
C        1.23820003       0.71014099      20.00000179
C        1.23820003       0.71014099      27.00000269
C        2.47640031       1.42028172      27.00000269
4
Lattice="2.4846002371424643 0.0 0.0 1.230001347397377 2.130422957938043 0.0 0.0 0.0 47.000004985511595" Properties=species:S:1:pos:R:3 energy=-1016.77362286256 pbc="T T T"
C        0.00000000       0.00000000      20.00000179
C        1.23820003       0.71014099      20.00000179
C        0.00000000       0.00000000      27.00000269
C        1.23820003       0.71014099      27.00000269
4
Lattice="2.4846002371424643 0.0 0.0 1.2423001185712321 2.1517259203713026 0.0 0.0 0.0 47.000004985511595" Properties=species:S:1:pos:R:3 energy=-1016.769840208089 pbc="T T T"
C        0.00000000       0.00000000      20.00000179
C        1.24230012       0.71724222      20.00000179
C        1.24230012       0.71724222      27.00000269
C        2.48460024       1.43448469      27.00000269
4
Lattice="2.4846002371424643 0.0 0.0 1.2423001185712321 2.1517259203713026 0.0 0.0 0.0 47.000004985511595" Properties=species:S:1:pos:R:3 energy=-1016.7698370787799 pbc="T T T"
C        0.00000000       0.00000000      20.00000179
C        1.24230012       0.71724222      20.00000179
C        1.24230012       0.00000000      27.00000269
C        2.48460024       0.71724222      27.00000269
4
Lattice="2.509200098027195 0.0 0.0 1.2053996534914804 2.0878150703649 0.0 0.0 0.0 47.00000268015425" Properties=species:S:1:pos:R:3 energy=-1016.6699376939342 pbc="T T T"
C        0.00000000       0.00000000      20.00000068
C        1.23820017       0.69593794      20.00000068
C        1.23820017       0.69593794      27.00000100
C        2.47640009       1.39187613      27.00000100
4
Lattice="2.509200098027195 0.0 0.0 1.2053996534914804 2.0878150703649 0.0 0.0 0.0 47.00000268015425" Properties=species:S:1:pos:R:3 energy=-1016.6699409593002 pbc="T T T"
C        0.00000000       0.00000000      20.00000068
C        1.23820017       0.69593794      20.00000068
C        0.00000000       0.00000000      27.00000100
C        1.23820017       0.69593794      27.00000100
4
Lattice="2.509200098027195 0.0 0.0 1.2053996534914804 2.0878150703649 0.0 0.0 0.0 47.00000268015425" Properties=species:S:1:pos:R:3 energy=-1016.6699319795435 pbc="T T T"
C        0.00000000       0.00000000      20.00000068
C        1.23820017       0.69593794      20.00000068
C        1.25460005       0.00000000      27.00000100
C        2.49280022       0.69593794      27.00000100
4
Lattice="2.509200098027195 0.0 0.0 1.2176997523720097 2.109118179197151 0.0 0.0 0.0 47.00000268015425" Properties=species:S:1:pos:R:3 energy=-1016.7219396008998 pbc="T T T"
C        0.00000000       0.00000000      20.00000068
C        1.24229995       0.70303948      20.00000068
C        1.24229995       0.70303948      27.00000100
C        2.48460015       1.40607895      27.00000100
4
Lattice="2.509200098027195 0.0 0.0 1.2176997523720097 2.109118179197151 0.0 0.0 0.0 47.00000268015425" Properties=species:S:1:pos:R:3 energy=-1016.7219376961029 pbc="T T T"
C        0.00000000       0.00000000      20.00000068
C        1.24229995       0.70303948      20.00000068
C        0.00000000       0.00000000      27.00000100
C        1.24229995       0.70303948      27.00000100
4
Lattice="2.509200098027195 0.0 0.0 1.2176997523720097 2.109118179197151 0.0 0.0 0.0 47.00000268015425" Properties=species:S:1:pos:R:3 energy=-1016.7219396008998 pbc="T T T"
C        0.00000000       0.00000000      20.00000068
C        1.24229995       0.70303948      20.00000068
C        1.25460005       0.00000000      27.00000100
C        2.49690000       0.70303948      27.00000100
4
Lattice="2.509200098027195 0.0 0.0 1.229999851252539 2.1304237972295 0.0 0.0 0.0 47.00000268015425" Properties=species:S:1:pos:R:3 energy=-1016.744886144572 pbc="T T T"
C        0.00000000       0.00000000      20.00000068
C        1.24639998       0.71014076      20.00000068
C        1.24639998       0.71014076      27.00000100
C        2.49280022       1.42028178      27.00000100
4
Lattice="2.509200098027195 0.0 0.0 1.2422999501330683 2.151726906061751 0.0 0.0 0.0 47.00000268015425" Properties=species:S:1:pos:R:3 energy=-1016.7407317825972 pbc="T T T"
C        0.00000000       0.00000000      20.00000068
C        1.25050002       0.71724230      20.00000068
C        1.25050002       0.71724230      27.00000100
C        2.50100003       1.43448460      27.00000100
4
Lattice="2.509200098027195 0.0 0.0 1.2422999501330683 2.151726906061751 0.0 0.0 0.0 43.10000064259245" Properties=species:S:1:pos:R:3 energy=-1016.8237901780253 pbc="T T T"
C        0.00000000       0.00000000      20.00000068
C        1.25050002       0.71724230      20.00000068
C        1.25050002       0.71724230      23.10000097
C        2.50100003       1.43448460      23.10000097
4
Lattice="2.435399986195794 0.0 0.0 1.2053987877676218 2.0878148293659575 0.0 0.0 0.0 43.09999930490285" Properties=species:S:1:pos:R:3 energy=-1016.7613461746154 pbc="T T T"
C        0.00000000       0.00000000      19.99999980
C        1.21360000       0.69593795      19.99999980
C        1.21360000       0.69593795      23.09999999
C        2.42719999       1.39187590      23.09999999
4
Lattice="2.509200098027195 0.0 0.0 1.2422999501330683 2.151726906061751 0.0 0.0 0.0 43.00000149108577" Properties=species:S:1:pos:R:3 energy=-1016.7052275934417 pbc="T T T"
C        0.00000000       0.00000000      20.00000068
C        1.25050002       0.71724230      20.00000068
C        0.00000000       0.00000000      23.00000082
C        1.25050002       0.71724230      23.00000082
4
Lattice="2.509200098027195 0.0 0.0 1.2422999501330683 2.151726906061751 0.0 0.0 0.0 47.00000268015425" Properties=species:S:1:pos:R:3 energy=-1016.7407279730036 pbc="T T T"
C        0.00000000       0.00000000      20.00000068
C        1.25050002       0.71724230      20.00000068
C        0.00000000       0.00000000      27.00000100
C        1.25050002       0.71724230      27.00000100
4
Lattice="2.509200098027195 0.0 0.0 1.2422999501330683 2.151726906061751 0.0 0.0 0.0 47.00000268015425" Properties=species:S:1:pos:R:3 energy=-1016.7407283811742 pbc="T T T"
C        0.00000000       0.00000000      20.00000068
C        1.25050002       0.71724230      20.00000068
C        1.25460005       0.00000000      27.00000100
C        2.50510007       0.71724230      27.00000100
4
Lattice="2.509200098027195 0.0 0.0 1.2546000490135976 2.173030014894002 0.0 0.0 0.0 47.00000268015425" Properties=species:S:1:pos:R:3 energy=-1016.7113090656218 pbc="T T T"
C        0.00000000       0.00000000      20.00000068
C        1.25460005       0.72434359      20.00000068
C        1.25460005       0.72434359      27.00000100
C        2.50920010       1.44868743      27.00000100
4
Lattice="2.509200098027195 0.0 0.0 1.2422999501330683 2.151726906061751 0.0 0.0 0.0 43.10000064259245" Properties=species:S:1:pos:R:3 energy=-1016.7560855338296 pbc="T T T"
C        0.00000000       0.00000000      20.00000068
C        1.25050002       0.71724230      20.00000068
C        0.00000000       0.00000000      23.10000097
C        1.25050002       0.71724230      23.10000097
4
Lattice="2.509200098027195 0.0 0.0 1.2422999501330683 2.151726906061751 0.0 0.0 0.0 43.00000149108577" Properties=species:S:1:pos:R:3 energy=-1016.7873797137304 pbc="T T T"
C        0.00000000       0.00000000      20.00000068
C        1.25050002       0.71724230      20.00000068
C        1.25460005       0.00000000      23.00000082
C        2.50510007       0.71724230      23.00000082
4
Lattice="2.509200098027195 0.0 0.0 1.2422999501330683 2.151726906061751 0.0 0.0 0.0 43.10000064259245" Properties=species:S:1:pos:R:3 energy=-1016.8170169924675 pbc="T T T"
C        0.00000000       0.00000000      20.00000068
C        1.25050002       0.71724230      20.00000068
C        1.25460005       0.00000000      23.10000097
C        2.50510007       0.71724230      23.10000097
4
Lattice="2.509200098027195 0.0 0.0 1.2546000490135976 2.173030014894002 0.0 0.0 0.0 43.00000149108577" Properties=species:S:1:pos:R:3 energy=-1016.7667243685795 pbc="T T T"
C        0.00000000       0.00000000      20.00000068
C        1.25460005       0.72434359      20.00000068
C        1.25460005       0.72434359      23.00000082
C        2.50920010       1.44868743      23.00000082
4
Lattice="2.509200098027195 0.0 0.0 1.2546000490135976 2.173030014894002 0.0 0.0 0.0 43.10000064259245" Properties=species:S:1:pos:R:3 energy=-1016.7939304462252 pbc="T T T"
C        0.00000000       0.00000000      20.00000068
C        1.25460005       0.72434359      20.00000068
C        1.25460005       0.72434359      23.10000097
C        2.50920010       1.44868743      23.10000097
4
Lattice="2.509200098027195 0.0 0.0 1.2546000490135976 2.173030014894002 0.0 0.0 0.0 43.10000064259245" Properties=species:S:1:pos:R:3 energy=-1016.7862765642284 pbc="T T T"
C        0.00000000       0.00000000      20.00000068
C        1.25460005       0.72434359      20.00000068
C        1.25460005       0.00000000      23.10000097
C        2.50920010       0.72434359      23.10000097
4
Lattice="2.4108001253110625 0.0 0.0 1.2054000626555312 2.087813178522513 0.0 0.0 0.0 43.35000254969127" Properties=species:S:1:pos:R:3 energy=-1016.7305461534455 pbc="T T T"
C        0.00000000       0.00000000      20.00000097
C        1.20540006       0.69593797      20.00000097
C        1.20540006       0.69593797      23.35000109
C        2.41080013       1.39187618      23.35000109
4
Lattice="2.4108001253110625 0.0 0.0 1.2054000626555312 2.087813178522513 0.0 0.0 0.0 43.35000254969127" Properties=species:S:1:pos:R:3 energy=-1016.7041524716652 pbc="T T T"
C        0.00000000       0.00000000      20.00000097
C        1.20540006       0.69593797      20.00000097
C        0.00000000       0.00000000      23.35000109
C        1.20540006       0.69593797      23.35000109
4
Lattice="2.4108001253110625 0.0 0.0 1.2054000626555312 2.087813178522513 0.0 0.0 0.0 43.200002565894415" Properties=species:S:1:pos:R:3 energy=-1016.7169044064293 pbc="T T T"
C        0.00000000       0.00000000      20.00000097
C        1.20540006       0.69593797      20.00000097
C        1.20540006       0.00000000      23.20000111
C        2.41080013       0.69593797      23.20000111
4
Lattice="2.435399986195794 0.0 0.0 1.2053987877676218 2.0878148293659575 0.0 0.0 0.0 43.350000419685806" Properties=species:S:1:pos:R:3 energy=-1016.7851130054544 pbc="T T T"
C        0.00000000       0.00000000      19.99999980
C        1.21360000       0.69593795      19.99999980
C        1.21360000       0.69593795      23.34999989
C        2.42719999       1.39187590      23.34999989
4
Lattice="2.435399986195794 0.0 0.0 1.2053987877676218 2.0878148293659575 0.0 0.0 0.0 43.19999926373603" Properties=species:S:1:pos:R:3 energy=-1016.7326788456561 pbc="T T T"
C        0.00000000       0.00000000      19.99999980
C        1.21360000       0.69593795      19.99999980
C        0.00000000       0.00000000      23.19999995
C        1.21360000       0.69593795      23.19999995
4
Lattice="2.435399986195794 0.0 0.0 1.2053987877676218 2.0878148293659575 0.0 0.0 0.0 42.999999346069664" Properties=species:S:1:pos:R:3 energy=-1016.727423783204 pbc="T T T"
C        0.00000000       0.00000000      19.99999980
C        1.21360000       0.69593795      19.99999980
C        1.21769999       0.00000000      22.99999979
C        2.43129999       0.69593795      22.99999979
4
Lattice="2.435399986195794 0.0 0.0 1.2053987877676218 2.0878148293659575 0.0 0.0 0.0 43.350000419685806" Properties=species:S:1:pos:R:3 energy=-1016.7824162212562 pbc="T T T"
C        0.00000000       0.00000000      19.99999980
C        1.21360000       0.69593795      19.99999980
C        1.21769999       0.00000000      23.34999989
C        2.43129999       0.69593795      23.34999989
4
Lattice="2.435399986195794 0.0 0.0 1.2053987877676218 2.0878148293659575 0.0 0.0 0.0 43.19999926373603" Properties=species:S:1:pos:R:3 energy=-1016.7718109925654 pbc="T T T"
C        0.00000000       0.00000000      19.99999980
C        1.21360000       0.69593795      19.99999980
C        1.21769999       0.00000000      23.19999995
C        2.43129999       0.69593795      23.19999995
4
Lattice="2.435399986195794 0.0 0.0 1.217699993097897 2.1091172730452126 0.0 0.0 0.0 43.350000419685806" Properties=species:S:1:pos:R:3 energy=-1016.8388764413545 pbc="T T T"
C        0.00000000       0.00000000      19.99999980
C        1.21769999       0.70303933      19.99999980
C        1.21769999       0.70303933      23.34999989
C        2.43539999       1.40607891      23.34999989
4
Lattice="2.435399986195794 0.0 0.0 1.217699993097897 2.1091172730452126 0.0 0.0 0.0 43.19999926373603" Properties=species:S:1:pos:R:3 energy=-1016.8297403552784 pbc="T T T"
C        0.00000000       0.00000000      19.99999980
C        1.21769999       0.70303933      19.99999980
C        1.21769999       0.70303933      23.19999995
C        2.43539999       1.40607891      23.19999995
4
Lattice="2.435399986195794 0.0 0.0 1.217699993097897 2.1091172730452126 0.0 0.0 0.0 43.19999926373603" Properties=species:S:1:pos:R:3 energy=-1016.7854354603531 pbc="T T T"
C        0.00000000       0.00000000      19.99999980
C        1.21769999       0.70303933      19.99999980
C        0.00000000       0.00000000      23.19999995
C        1.21769999       0.70303933      23.19999995
4
Lattice="2.435399986195794 0.0 0.0 1.217699993097897 2.1091172730452126 0.0 0.0 0.0 43.350000419685806" Properties=species:S:1:pos:R:3 energy=-1016.8355627750841 pbc="T T T"
C        0.00000000       0.00000000      19.99999980
C        1.21769999       0.70303933      19.99999980
C        1.21769999       0.00000000      23.34999989
C        2.43539999       0.70303933      23.34999989
4
Lattice="2.435399986195794 0.0 0.0 1.217699993097897 2.1091172730452126 0.0 0.0 0.0 43.19999926373603" Properties=species:S:1:pos:R:3 energy=-1016.8245388992526 pbc="T T T"
C        0.00000000       0.00000000      19.99999980
C        1.21769999       0.70303933      19.99999980
C        1.21769999       0.00000000      23.19999995
C        2.43539999       0.70303933      23.19999995
4
Lattice="2.4599998470805247 0.0 0.0 1.2053999250694571 2.0878141702164768 0.0 0.0 0.0 43.199998274584765" Properties=species:S:1:pos:R:3 energy=-1016.800963500499 pbc="T T T"
C        0.00000000       0.00000000      19.99999875
C        1.22180001       0.69593789      19.99999875
C        1.22180001       0.69593789      23.19999854
C        2.44359977       1.39187603      23.19999854
4
Lattice="2.4599998470805247 0.0 0.0 1.2053999250694571 2.0878141702164768 0.0 0.0 0.0 43.3499967652605" Properties=species:S:1:pos:R:3 energy=-1016.7820937663574 pbc="T T T"
C        0.00000000       0.00000000      19.99999875
C        1.22180001       0.69593789      19.99999875
C        0.00000000       0.00000000      23.34999850
C        1.22180001       0.69593789      23.34999850
4
Lattice="2.4599998470805247 0.0 0.0 1.2053999250694571 2.0878141702164768 0.0 0.0 0.0 43.199998274584765" Properties=species:S:1:pos:R:3 energy=-1016.7561380518003 pbc="T T T"
C        0.00000000       0.00000000      19.99999875
C        1.22180001       0.69593789      19.99999875
C        0.00000000       0.00000000      23.19999854
C        1.22180001       0.69593789      23.19999854
4
Lattice="2.4599998470805247 0.0 0.0 1.2053999250694571 2.0878141702164768 0.0 0.0 0.0 43.199998274584765" Properties=species:S:1:pos:R:3 energy=-1016.7965390655394 pbc="T T T"
C        0.00000000       0.00000000      19.99999875
C        1.22180001       0.69593789      19.99999875
C        1.22999992       0.00000000      23.19999854
C        2.45179993       0.69593789      23.19999854
4
Lattice="2.4599998470805247 0.0 0.0 1.2176999243048596 2.1091177688921943 0.0 0.0 0.0 43.3499967652605" Properties=species:S:1:pos:R:3 energy=-1016.8633064136181 pbc="T T T"
C        0.00000000       0.00000000      19.99999875
C        1.22589984       0.70303942      19.99999875
C        1.22589984       0.70303942      23.34999850
C        2.45179993       1.40607884      23.34999850
4
Lattice="2.4599998470805247 0.0 0.0 1.2176999243048596 2.1091177688921943 0.0 0.0 0.0 43.199998274584765" Properties=species:S:1:pos:R:3 energy=-1016.8538539952048 pbc="T T T"
C        0.00000000       0.00000000      19.99999875
C        1.22589984       0.70303942      19.99999875
C        1.22589984       0.70303942      23.19999854
C        2.45179993       1.40607884      23.19999854
4
Lattice="2.4599998470805247 0.0 0.0 1.2176999243048596 2.1091177688921943 0.0 0.0 0.0 43.3499967652605" Properties=species:S:1:pos:R:3 energy=-1016.835116100218 pbc="T T T"
C        0.00000000       0.00000000      19.99999875
C        1.22589984       0.70303942      19.99999875
C        0.00000000       0.00000000      23.34999850
C        1.22589984       0.70303942      23.34999850
4
Lattice="2.4599998470805247 0.0 0.0 1.2176999243048596 2.1091177688921943 0.0 0.0 0.0 43.3499967652605" Properties=species:S:1:pos:R:3 energy=-1016.8604994233154 pbc="T T T"
C        0.00000000       0.00000000      19.99999875
C        1.22589984       0.70303942      19.99999875
C        1.22999992       0.00000000      23.34999850
C        2.45589977       0.70303942      23.34999850
4
Lattice="2.435399986195794 0.0 0.0 1.2053987877676218 2.0878148293659575 0.0 0.0 0.0 43.09999930490285" Properties=species:S:1:pos:R:3 energy=-1016.7552930022745 pbc="T T T"
C        0.00000000       0.00000000      19.99999980
C        1.21360000       0.69593795      19.99999980
C        1.21769999       0.00000000      23.09999999
C        2.43129999       0.69593795      23.09999999
4
Lattice="2.4599998470805247 0.0 0.0 1.2299999235402623 2.1304213675679113 0.0 0.0 0.0 43.3499967652605" Properties=species:S:1:pos:R:3 energy=-1016.8871624977961 pbc="T T T"
C        0.00000000       0.00000000      19.99999875
C        1.22999992       0.71014070      19.99999875
C        1.22999992       0.71014070      23.34999850
C        2.45999985       1.42028165      23.34999850
4
Lattice="2.4599998470805247 0.0 0.0 1.2299999235402623 2.1304213675679113 0.0 0.0 0.0 43.3499967652605" Properties=species:S:1:pos:R:3 energy=-1016.858560612215 pbc="T T T"
C        0.00000000       0.00000000      19.99999875
C        1.22999992       0.71014070      19.99999875
C        0.00000000       0.00000000      23.34999850
C        1.22999992       0.71014070      23.34999850
4
Lattice="2.4599998470805247 0.0 0.0 1.2299999235402623 2.1304213675679113 0.0 0.0 0.0 43.199998274584765" Properties=species:S:1:pos:R:3 energy=-1016.8313437860727 pbc="T T T"
C        0.00000000       0.00000000      19.99999875
C        1.22999992       0.71014070      19.99999875
C        0.00000000       0.00000000      23.19999854
C        1.22999992       0.71014070      23.19999854
4
Lattice="2.4846002371424643 0.0 0.0 1.2054013204494294 2.087814548471287 0.0 0.0 0.0 43.35000300713746" Properties=species:S:1:pos:R:3 energy=-1016.80777233297 pbc="T T T"
C        0.00000000       0.00000000      20.00000179
C        1.23000011       0.69593802      20.00000179
C        1.23000011       0.69593802      23.35000221
C        2.46000021       1.39187628      23.35000221
4
Lattice="2.4846002371424643 0.0 0.0 1.2054013204494294 2.087814548471287 0.0 0.0 0.0 43.20000520622092" Properties=species:S:1:pos:R:3 energy=-1016.7981418160491 pbc="T T T"
C        0.00000000       0.00000000      20.00000179
C        1.23000011       0.69593802      20.00000179
C        1.23000011       0.69593802      23.20000217
C        2.46000021       1.39187628      23.20000217
4
Lattice="2.4846002371424643 0.0 0.0 1.2054013204494294 2.087814548471287 0.0 0.0 0.0 43.35000300713746" Properties=species:S:1:pos:R:3 energy=-1016.7783135609109 pbc="T T T"
C        0.00000000       0.00000000      20.00000179
C        1.23000011       0.69593802      20.00000179
C        0.00000000       0.00000000      23.35000221
C        1.23000011       0.69593802      23.35000221
4
Lattice="2.4846002371424643 0.0 0.0 1.2054013204494294 2.087814548471287 0.0 0.0 0.0 43.20000520622092" Properties=species:S:1:pos:R:3 energy=-1016.751762053104 pbc="T T T"
C        0.00000000       0.00000000      20.00000179
C        1.23000011       0.69593802      20.00000179
C        0.00000000       0.00000000      23.20000217
C        1.23000011       0.69593802      23.20000217
4
Lattice="2.4846002371424643 0.0 0.0 1.2054013204494294 2.087814548471287 0.0 0.0 0.0 43.35000300713746" Properties=species:S:1:pos:R:3 energy=-1016.8049622133581 pbc="T T T"
C        0.00000000       0.00000000      20.00000179
C        1.23000011       0.69593802      20.00000179
C        1.24230012       0.00000000      23.35000221
C        2.47230022       0.69593802      23.35000221
4
Lattice="2.4846002371424643 0.0 0.0 1.2054013204494294 2.087814548471287 0.0 0.0 0.0 43.20000520622092" Properties=species:S:1:pos:R:3 energy=-1016.793748538124 pbc="T T T"
C        0.00000000       0.00000000      20.00000179
C        1.23000011       0.69593802      20.00000179
C        1.24230012       0.00000000      23.20000217
C        2.47230022       0.69593802      23.20000217
4
Lattice="2.4846002371424643 0.0 0.0 1.2177000916232845 2.1091175109045466 0.0 0.0 0.0 43.20000520622092" Properties=species:S:1:pos:R:3 energy=-1016.8504592390107 pbc="T T T"
C        0.00000000       0.00000000      20.00000179
C        1.23410019       0.70303950      20.00000179
C        1.23410019       0.70303950      23.20000217
C        2.46820014       1.40607900      23.20000217
4
Lattice="2.4846002371424643 0.0 0.0 1.2177000916232845 2.1091175109045466 0.0 0.0 0.0 43.35000300713746" Properties=species:S:1:pos:R:3 energy=-1016.8310409233703 pbc="T T T"
C        0.00000000       0.00000000      20.00000179
C        1.23410019       0.70303950      20.00000179
C        0.00000000       0.00000000      23.35000221
C        1.23410019       0.70303950      23.35000221
4
Lattice="2.4846002371424643 0.0 0.0 1.2177000916232845 2.1091175109045466 0.0 0.0 0.0 43.20000520622092" Properties=species:S:1:pos:R:3 energy=-1016.8038385192613 pbc="T T T"
C        0.00000000       0.00000000      20.00000179
C        1.23410019       0.70303950      20.00000179
C        0.00000000       0.00000000      23.20000217
C        1.23410019       0.70303950      23.20000217
4
Lattice="2.4846002371424643 0.0 0.0 1.2177000916232845 2.1091175109045466 0.0 0.0 0.0 43.35000300713746" Properties=species:S:1:pos:R:3 energy=-1016.8573275283551 pbc="T T T"
C        0.00000000       0.00000000      20.00000179
C        1.23410019       0.70303950      20.00000179
C        1.24230012       0.00000000      23.35000221
C        2.47640031       0.70303950      23.35000221
4
Lattice="2.4846002371424643 0.0 0.0 1.2177000916232845 2.1091175109045466 0.0 0.0 0.0 43.20000520622092" Properties=species:S:1:pos:R:3 energy=-1016.8458977947332 pbc="T T T"
C        0.00000000       0.00000000      20.00000179
C        1.23410019       0.70303950      20.00000179
C        1.24230012       0.00000000      23.20000217
C        2.47640031       0.70303950      23.20000217
4
Lattice="2.4846002371424643 0.0 0.0 1.230001347397377 2.130422957938043 0.0 0.0 0.0 43.20000520622092" Properties=species:S:1:pos:R:3 energy=-1016.8736864681075 pbc="T T T"
C        0.00000000       0.00000000      20.00000179
C        1.23820003       0.71014099      20.00000179
C        1.23820003       0.71014099      23.20000217
C        2.47640031       1.42028172      23.20000217
4
Lattice="2.435399986195794 0.0 0.0 1.217699993097897 2.1091172730452126 0.0 0.0 0.0 43.09999930490285" Properties=species:S:1:pos:R:3 energy=-1016.8146593981694 pbc="T T T"
C        0.00000000       0.00000000      19.99999980
C        1.21769999       0.70303933      19.99999980
C        1.21769999       0.70303933      23.09999999
C        2.43539999       1.40607891      23.09999999
4
Lattice="2.4846002371424643 0.0 0.0 1.230001347397377 2.130422957938043 0.0 0.0 0.0 43.35000300713746" Properties=species:S:1:pos:R:3 energy=-1016.8543299223086 pbc="T T T"
C        0.00000000       0.00000000      20.00000179
C        1.23820003       0.71014099      20.00000179
C        0.00000000       0.00000000      23.35000221
C        1.23820003       0.71014099      23.35000221
4
Lattice="2.4846002371424643 0.0 0.0 1.230001347397377 2.130422957938043 0.0 0.0 0.0 43.20000520622092" Properties=species:S:1:pos:R:3 energy=-1016.826497846777 pbc="T T T"
C        0.00000000       0.00000000      20.00000179
C        1.23820003       0.71014099      20.00000179
C        0.00000000       0.00000000      23.20000217
C        1.23820003       0.71014099      23.20000217
4
Lattice="2.4846002371424643 0.0 0.0 1.2423001185712321 2.1517259203713026 0.0 0.0 0.0 43.35000300713746" Properties=species:S:1:pos:R:3 energy=-1016.8798048117127 pbc="T T T"
C        0.00000000       0.00000000      20.00000179
C        1.24230012       0.71724222      20.00000179
C        1.24230012       0.71724222      23.35000221
C        2.48460024       1.43448469      23.35000221
4
Lattice="2.4846002371424643 0.0 0.0 1.2423001185712321 2.1517259203713026 0.0 0.0 0.0 43.20000520622092" Properties=species:S:1:pos:R:3 energy=-1016.8696198628456 pbc="T T T"
C        0.00000000       0.00000000      20.00000179
C        1.24230012       0.71724222      20.00000179
C        1.24230012       0.71724222      23.20000217
C        2.48460024       1.43448469      23.20000217
4
Lattice="2.4846002371424643 0.0 0.0 1.2423001185712321 2.1517259203713026 0.0 0.0 0.0 43.35000300713746" Properties=species:S:1:pos:R:3 energy=-1016.8500502519111 pbc="T T T"
C        0.00000000       0.00000000      20.00000179
C        1.24230012       0.71724222      20.00000179
C        0.00000000       0.00000000      23.35000221
C        1.24230012       0.71724222      23.35000221
4
Lattice="2.4846002371424643 0.0 0.0 1.2423001185712321 2.1517259203713026 0.0 0.0 0.0 43.35000300713746" Properties=species:S:1:pos:R:3 energy=-1016.876174813105 pbc="T T T"
C        0.00000000       0.00000000      20.00000179
C        1.24230012       0.71724222      20.00000179
C        1.24230012       0.00000000      23.35000221
C        2.48460024       0.71724222      23.35000221
4
Lattice="2.509200098027195 0.0 0.0 1.2053996534914804 2.0878150703649 0.0 0.0 0.0 43.35000228515929" Properties=species:S:1:pos:R:3 energy=-1016.7795109978579 pbc="T T T"
C        0.00000000       0.00000000      20.00000068
C        1.23820017       0.69593794      20.00000068
C        1.23820017       0.69593794      23.35000086
C        2.47640009       1.39187613      23.35000086
4
Lattice="2.509200098027195 0.0 0.0 1.2053996534914804 2.0878150703649 0.0 0.0 0.0 43.20000230329923" Properties=species:S:1:pos:R:3 energy=-1016.769541699208 pbc="T T T"
C        0.00000000       0.00000000      20.00000068
C        1.23820017       0.69593794      20.00000068
C        1.23820017       0.69593794      23.20000087
C        2.47640009       1.39187613      23.20000087
4
Lattice="2.509200098027195 0.0 0.0 1.2053996534914804 2.0878150703649 0.0 0.0 0.0 43.35000228515929" Properties=species:S:1:pos:R:3 energy=-1016.7492127546067 pbc="T T T"
C        0.00000000       0.00000000      20.00000068
C        1.23820017       0.69593794      20.00000068
C        0.00000000       0.00000000      23.35000086
C        1.23820017       0.69593794      23.35000086
4
Lattice="2.509200098027195 0.0 0.0 1.2053996534914804 2.0878150703649 0.0 0.0 0.0 43.20000230329923" Properties=species:S:1:pos:R:3 energy=-1016.7213730598876 pbc="T T T"
C        0.00000000       0.00000000      20.00000068
C        1.23820017       0.69593794      20.00000068
C        0.00000000       0.00000000      23.20000087
C        1.23820017       0.69593794      23.20000087
4
Lattice="2.509200098027195 0.0 0.0 1.2053996534914804 2.0878150703649 0.0 0.0 0.0 43.35000228515929" Properties=species:S:1:pos:R:3 energy=-1016.7769664613527 pbc="T T T"
C        0.00000000       0.00000000      20.00000068
C        1.23820017       0.69593794      20.00000068
C        1.25460005       0.00000000      23.35000086
C        2.49280022       0.69593794      23.35000086
4
Lattice="2.509200098027195 0.0 0.0 1.2176997523720097 2.109118179197151 0.0 0.0 0.0 43.35000228515929" Properties=species:S:1:pos:R:3 energy=-1016.8315175307587 pbc="T T T"
C        0.00000000       0.00000000      20.00000068
C        1.24229995       0.70303948      20.00000068
C        1.24229995       0.70303948      23.35000086
C        2.48460015       1.40607895      23.35000086
4
Lattice="2.509200098027195 0.0 0.0 1.2176997523720097 2.109118179197151 0.0 0.0 0.0 43.20000230329923" Properties=species:S:1:pos:R:3 energy=-1016.8213709499429 pbc="T T T"
C        0.00000000       0.00000000      20.00000068
C        1.24229995       0.70303948      20.00000068
C        1.24229995       0.70303948      23.20000087
C        2.48460015       1.40607895      23.20000087
4
Lattice="2.509200098027195 0.0 0.0 1.2176997523720097 2.109118179197151 0.0 0.0 0.0 43.20000230329923" Properties=species:S:1:pos:R:3 energy=-1016.7732121067207 pbc="T T T"
C        0.00000000       0.00000000      20.00000068
C        1.24229995       0.70303948      20.00000068
C        0.00000000       0.00000000      23.20000087
C        1.24229995       0.70303948      23.20000087
4
Lattice="2.435399986195794 0.0 0.0 1.217699993097897 2.1091172730452126 0.0 0.0 0.0 43.09999930490285" Properties=species:S:1:pos:R:3 energy=-1016.7534045322341 pbc="T T T"
C        0.00000000       0.00000000      19.99999980
C        1.21769999       0.70303933      19.99999980
C        0.00000000       0.00000000      23.09999999
C        1.21769999       0.70303933      23.09999999
4
Lattice="2.435399986195794 0.0 0.0 1.217699993097897 2.1091172730452126 0.0 0.0 0.0 42.999999346069664" Properties=species:S:1:pos:R:3 energy=-1016.7794407924875 pbc="T T T"
C        0.00000000       0.00000000      19.99999980
C        1.21769999       0.70303933      19.99999980
C        1.21769999       0.00000000      22.99999979
C        2.43539999       0.70303933      22.99999979
4
Lattice="2.509200098027195 0.0 0.0 1.2176997523720097 2.109118179197151 0.0 0.0 0.0 43.20000230329923" Properties=species:S:1:pos:R:3 energy=-1016.8168545405057 pbc="T T T"
C        0.00000000       0.00000000      20.00000068
C        1.24229995       0.70303948      20.00000068
C        1.25460005       0.00000000      23.20000087
C        2.49690000       0.70303948      23.20000087
4
Lattice="2.509200098027195 0.0 0.0 1.229999851252539 2.1304237972295 0.0 0.0 0.0 43.20000230329923" Properties=species:S:1:pos:R:3 energy=-1016.8442438868219 pbc="T T T"
C        0.00000000       0.00000000      20.00000068
C        1.24639998       0.71014076      20.00000068
C        1.24639998       0.71014076      23.20000087
C        2.49280022       1.42028178      23.20000087
4
Lattice="2.509200098027195 0.0 0.0 1.229999851252539 2.1304237972295 0.0 0.0 0.0 43.35000228515929" Properties=species:S:1:pos:R:3 energy=-1016.8242044713448 pbc="T T T"
C        0.00000000       0.00000000      20.00000068
C        1.24639998       0.71014076      20.00000068
C        0.00000000       0.00000000      23.35000086
C        1.24639998       0.71014076      23.35000086
4
Lattice="2.509200098027195 0.0 0.0 1.2422999501330683 2.151726906061751 0.0 0.0 0.0 43.35000228515929" Properties=species:S:1:pos:R:3 energy=-1016.8504460414894 pbc="T T T"
C        0.00000000       0.00000000      20.00000068
C        1.25050002       0.71724230      20.00000068
C        1.25050002       0.71724230      23.35000086
C        2.50100003       1.43448460      23.35000086
4
Lattice="2.509200098027195 0.0 0.0 1.2422999501330683 2.151726906061751 0.0 0.0 0.0 43.20000230329923" Properties=species:S:1:pos:R:3 energy=-1016.8399912917513 pbc="T T T"
C        0.00000000       0.00000000      20.00000068
C        1.25050002       0.71724230      20.00000068
C        1.25050002       0.71724230      23.20000087
C        2.50100003       1.43448460      23.20000087
4
Lattice="2.509200098027195 0.0 0.0 1.2422999501330683 2.151726906061751 0.0 0.0 0.0 43.35000228515929" Properties=species:S:1:pos:R:3 energy=-1016.8199501075344 pbc="T T T"
C        0.00000000       0.00000000      20.00000068
C        1.25050002       0.71724230      20.00000068
C        0.00000000       0.00000000      23.35000086
C        1.25050002       0.71724230      23.35000086
4
Lattice="2.509200098027195 0.0 0.0 1.2422999501330683 2.151726906061751 0.0 0.0 0.0 43.35000228515929" Properties=species:S:1:pos:R:3 energy=-1016.8474072101963 pbc="T T T"
C        0.00000000       0.00000000      20.00000068
C        1.25050002       0.71724230      20.00000068
C        1.25460005       0.00000000      23.35000086
C        2.50510007       0.71724230      23.35000086
4
Lattice="2.509200098027195 0.0 0.0 1.2422999501330683 2.151726906061751 0.0 0.0 0.0 43.20000230329923" Properties=species:S:1:pos:R:3 energy=-1016.8350679360685 pbc="T T T"
C        0.00000000       0.00000000      20.00000068
C        1.25050002       0.71724230      20.00000068
C        1.25460005       0.00000000      23.20000087
C        2.50510007       0.71724230      23.20000087
4
Lattice="2.509200098027195 0.0 0.0 1.2546000490135976 2.173030014894002 0.0 0.0 0.0 43.35000228515929" Properties=species:S:1:pos:R:3 energy=-1016.8209614186156 pbc="T T T"
C        0.00000000       0.00000000      20.00000068
C        1.25460005       0.72434359      20.00000068
C        1.25460005       0.72434359      23.35000086
C        2.50920010       1.44868743      23.35000086
4
Lattice="2.509200098027195 0.0 0.0 1.2546000490135976 2.173030014894002 0.0 0.0 0.0 43.20000230329923" Properties=species:S:1:pos:R:3 energy=-1016.8103057128077 pbc="T T T"
C        0.00000000       0.00000000      20.00000068
C        1.25460005       0.72434359      20.00000068
C        1.25460005       0.72434359      23.20000087
C        2.50920010       1.44868743      23.20000087
4
Lattice="2.509200098027195 0.0 0.0 1.2546000490135976 2.173030014894002 0.0 0.0 0.0 43.35000228515929" Properties=species:S:1:pos:R:3 energy=-1016.7900090136962 pbc="T T T"
C        0.00000000       0.00000000      20.00000068
C        1.25460005       0.72434359      20.00000068
C        0.00000000       0.00000000      23.35000086
C        1.25460005       0.72434359      23.35000086
4
Lattice="2.509200098027195 0.0 0.0 1.2546000490135976 2.173030014894002 0.0 0.0 0.0 43.20000230329923" Properties=species:S:1:pos:R:3 energy=-1016.7603354077617 pbc="T T T"
C        0.00000000       0.00000000      20.00000068
C        1.25460005       0.72434359      20.00000068
C        0.00000000       0.00000000      23.20000087
C        1.25460005       0.72434359      23.20000087
4
Lattice="2.509200098027195 0.0 0.0 1.2546000490135976 2.173030014894002 0.0 0.0 0.0 43.35000228515929" Properties=species:S:1:pos:R:3 energy=-1016.817221622074 pbc="T T T"
C        0.00000000       0.00000000      20.00000068
C        1.25460005       0.72434359      20.00000068
C        1.25460005       0.00000000      23.35000086
C        2.50920010       0.72434359      23.35000086
4
Lattice="2.509200098027195 0.0 0.0 1.2546000490135976 2.173030014894002 0.0 0.0 0.0 43.20000230329923" Properties=species:S:1:pos:R:3 energy=-1016.804620030206 pbc="T T T"
C        0.00000000       0.00000000      20.00000068
C        1.25460005       0.72434359      20.00000068
C        1.25460005       0.00000000      23.20000087
C        2.50920010       0.72434359      23.20000087
4
Lattice="2.435399986195794 0.0 0.0 1.217699993097897 2.1091172730452126 0.0 0.0 0.0 43.09999930490285" Properties=species:S:1:pos:R:3 energy=-1016.8077315158941 pbc="T T T"
C        0.00000000       0.00000000      19.99999980
C        1.21769999       0.70303933      19.99999980
C        1.21769999       0.00000000      23.09999999
C        2.43539999       0.70303933      23.09999999
4
Lattice="2.4108001253110625 0.0 0.0 1.2054000626555312 2.087813178522513 0.0 0.0 0.0 43.43000254104959" Properties=species:S:1:pos:R:3 energy=-1016.7307256125222 pbc="T T T"
C        0.00000000       0.00000000      20.00000097
C        1.20540006       0.69593797      20.00000097
C        1.20540006       0.69593797      23.43000133
C        2.41080013       1.39187618      23.43000133
4
Lattice="2.4108001253110625 0.0 0.0 1.2054000626555312 2.087813178522513 0.0 0.0 0.0 43.30000255509232" Properties=species:S:1:pos:R:3 energy=-1016.729086806929 pbc="T T T"
C        0.00000000       0.00000000      20.00000097
C        1.20540006       0.69593797      20.00000097
C        1.20540006       0.69593797      23.30000110
C        2.41080013       1.39187618      23.30000110
4
Lattice="2.4108001253110625 0.0 0.0 1.2054000626555312 2.087813178522513 0.0 0.0 0.0 43.43000254104959" Properties=species:S:1:pos:R:3 energy=-1016.7100611515576 pbc="T T T"
C        0.00000000       0.00000000      20.00000097
C        1.20540006       0.69593797      20.00000097
C        0.00000000       0.00000000      23.43000133
C        1.20540006       0.69593797      23.43000133
4
Lattice="2.4108001253110625 0.0 0.0 1.2054000626555312 2.087813178522513 0.0 0.0 0.0 43.43000254104959" Properties=species:S:1:pos:R:3 energy=-1016.7283346842789 pbc="T T T"
C        0.00000000       0.00000000      20.00000097
C        1.20540006       0.69593797      20.00000097
C        1.20540006       0.00000000      23.43000133
C        2.41080013       0.69593797      23.43000133
4
Lattice="2.435399986195794 0.0 0.0 1.2053987877676218 2.0878148293659575 0.0 0.0 0.0 43.29999922256921" Properties=species:S:1:pos:R:3 energy=-1016.7835521604758 pbc="T T T"
C        0.00000000       0.00000000      19.99999980
C        1.21360000       0.69593795      19.99999980
C        1.21360000       0.69593795      23.29999991
C        2.42719999       1.39187590      23.29999991
4
Lattice="2.435399986195794 0.0 0.0 1.2053987877676218 2.0878148293659575 0.0 0.0 0.0 43.43000087383235" Properties=species:S:1:pos:R:3 energy=-1016.7641850022372 pbc="T T T"
C        0.00000000       0.00000000      19.99999980
C        1.21360000       0.69593795      19.99999980
C        0.00000000       0.00000000      23.42999985
C        1.21360000       0.69593795      23.42999985
4
Lattice="2.435399986195794 0.0 0.0 1.2053987877676218 2.0878148293659575 0.0 0.0 0.0 43.43000087383235" Properties=species:S:1:pos:R:3 energy=-1016.783364537984 pbc="T T T"
C        0.00000000       0.00000000      19.99999980
C        1.21360000       0.69593795      19.99999980
C        1.21769999       0.00000000      23.42999985
C        2.43129999       0.69593795      23.42999985
4
Lattice="2.435399986195794 0.0 0.0 1.2053987877676218 2.0878148293659575 0.0 0.0 0.0 43.29999922256921" Properties=species:S:1:pos:R:3 energy=-1016.7803599930346 pbc="T T T"
C        0.00000000       0.00000000      19.99999980
C        1.21360000       0.69593795      19.99999980
C        1.21769999       0.00000000      23.29999991
C        2.43129999       0.69593795      23.29999991
4
Lattice="2.435399986195794 0.0 0.0 1.217699993097897 2.1091172730452126 0.0 0.0 0.0 43.43000087383235" Properties=species:S:1:pos:R:3 energy=-1016.8393274700419 pbc="T T T"
C        0.00000000       0.00000000      19.99999980
C        1.21769999       0.70303933      19.99999980
C        1.21769999       0.70303933      23.42999985
C        2.43539999       1.40607891      23.42999985
4
Lattice="2.435399986195794 0.0 0.0 1.217699993097897 2.1091172730452126 0.0 0.0 0.0 43.29999922256921" Properties=species:S:1:pos:R:3 energy=-1016.8050713310073 pbc="T T T"
C        0.00000000       0.00000000      19.99999980
C        1.21769999       0.70303933      19.99999980
C        0.00000000       0.00000000      23.29999991
C        1.21769999       0.70303933      23.29999991
4
Lattice="2.435399986195794 0.0 0.0 1.217699993097897 2.1091172730452126 0.0 0.0 0.0 43.43000087383235" Properties=species:S:1:pos:R:3 energy=-1016.8367859267889 pbc="T T T"
C        0.00000000       0.00000000      19.99999980
C        1.21769999       0.70303933      19.99999980
C        1.21769999       0.00000000      23.42999985
C        2.43539999       0.70303933      23.42999985
4
Lattice="2.435399986195794 0.0 0.0 1.217699993097897 2.1091172730452126 0.0 0.0 0.0 43.29999922256921" Properties=species:S:1:pos:R:3 energy=-1016.8333030057111 pbc="T T T"
C        0.00000000       0.00000000      19.99999980
C        1.21769999       0.70303933      19.99999980
C        1.21769999       0.00000000      23.29999991
C        2.43539999       0.70303933      23.29999991
4
Lattice="2.4599998470805247 0.0 0.0 1.2053999250694571 2.0878141702164768 0.0 0.0 0.0 43.4299984202874" Properties=species:S:1:pos:R:3 energy=-1016.8107108903135 pbc="T T T"
C        0.00000000       0.00000000      19.99999875
C        1.22180001       0.69593789      19.99999875
C        1.22180001       0.69593789      23.42999844
C        2.44359977       1.39187603      23.42999844
4
Lattice="2.4599998470805247 0.0 0.0 1.2299999235402623 2.1304213675679113 0.0 0.0 0.0 41.49999816026084" Properties=species:S:1:pos:R:3 energy=-1007.5181330981571 pbc="T T T"
C        0.00000000       0.00000000      19.99999875
C        1.22999992       0.71014070      19.99999875
C        1.22999992       0.71014070      21.49999867
C        2.45999985       1.42028165      21.49999867
4
Lattice="2.4599998470805247 0.0 0.0 1.2299999235402623 2.1304213675679113 0.0 0.0 0.0 41.69999860782833" Properties=species:S:1:pos:R:3 energy=-1011.1436185617525 pbc="T T T"
C        0.00000000       0.00000000      19.99999875
C        1.22999992       0.71014070      19.99999875
C        1.22999992       0.71014070      21.69999862
C        2.45999985       1.42028165      21.69999862
4
Lattice="2.4599998470805247 0.0 0.0 1.2299999235402623 2.1304213675679113 0.0 0.0 0.0 42.09999704296347" Properties=species:S:1:pos:R:3 energy=-1015.00066378623 pbc="T T T"
C        0.00000000       0.00000000      19.99999875
C        1.22999992       0.71014070      19.99999875
C        1.22999992       0.71014070      22.09999853
C        2.45999985       1.42028165      22.09999853
4
Lattice="2.4599998470805247 0.0 0.0 1.2299999235402623 2.1304213675679113 0.0 0.0 0.0 42.49999793809846" Properties=species:S:1:pos:R:3 energy=-1016.373622730753 pbc="T T T"
C        0.00000000       0.00000000      19.99999875
C        1.22999992       0.71014070      19.99999875
C        1.22999992       0.71014070      22.49999869
C        2.45999985       1.42028165      22.49999869
4
Lattice="2.4599998470805247 0.0 0.0 1.2299999235402623 2.1304213675679113 0.0 0.0 0.0 42.69999838566596" Properties=species:S:1:pos:R:3 energy=-1016.6513736796902 pbc="T T T"
C        0.00000000       0.00000000      19.99999875
C        1.22999992       0.71014070      19.99999875
C        1.22999992       0.71014070      22.69999865
C        2.45999985       1.42028165      22.69999865
4
Lattice="2.4599998470805247 0.0 0.0 1.2299999235402623 2.1304213675679113 0.0 0.0 0.0 44.299997046206215" Properties=species:S:1:pos:R:3 energy=-1016.8372894734474 pbc="T T T"
C        0.00000000       0.00000000      19.99999875
C        1.22999992       0.71014070      19.99999875
C        1.22999992       0.71014070      24.29999854
C        2.45999985       1.42028165      24.29999854
4
Lattice="2.4690000930402016 0.0 0.0 1.2345000465201008 2.1382158055751406 0.0 0.0 0.0 47.00000181411765" Properties=species:S:1:pos:R:3 energy=-1016.7805321050375 pbc="T T T"
C        0.00000000       0.00000000      20.00000069
C        1.23450005       0.71273885      20.00000069
C        1.23450005       0.71273885      27.00000112
C        2.46900009       1.42547794      27.00000112
4
Lattice="2.4690000930402016 0.0 0.0 1.2345000465201008 2.1382158055751406 0.0 0.0 0.0 48.000001169800974" Properties=species:S:1:pos:R:3 energy=-1016.7765125754697 pbc="T T T"
C        0.00000000       0.00000000      20.00000069
C        1.23450005       0.71273885      20.00000069
C        1.23450005       0.71273885      28.00000097
C        2.46900009       1.42547794      28.00000097
4
Lattice="2.435399986195794 0.0 0.0 1.2546011736887357 2.1730319102829347 0.0 0.0 0.0 43.43000087383235" Properties=species:S:1:pos:R:3 energy=-1016.8323812200827 pbc="T T T"
C        0.00000000       0.00000000      19.99999980
C        1.22999998       0.72434373      19.99999980
C        1.22999998       0.72434373      23.42999985
C        2.45999996       1.44868721      23.42999985
4
Lattice="2.435399986195794 0.0 0.0 1.2546011736887357 2.1730319102829347 0.0 0.0 0.0 43.43000087383235" Properties=species:S:1:pos:R:3 energy=-1016.8345130959516 pbc="T T T"
C        0.00147579      -0.00287231      19.99997391
C        1.22854663       0.72721416      20.00026647
C        1.23145337       0.72147314      23.42973353
C        2.45852421       1.45155961      23.43002609
4
Lattice="2.444706096581899 0.0 0.0 1.2347012587847848 2.1385628862252375 0.0 0.0 0.0 43.30000120377958" Properties=species:S:1:pos:R:3 energy=-1016.8757792956405 pbc="T T T"
C        0.00000000       0.00000000      20.00000074
C        1.22646871       0.71285430      20.00000074
C        1.22646871       0.71285430      23.30000095
C        2.45293742       1.42570884      23.30000095
4
Lattice="2.435399986195794 0.0 0.0 1.2546011736887357 2.1730319102829347 0.0 0.0 0.0 43.43000087383235" Properties=species:S:1:pos:R:3 energy=-1016.8084588761849 pbc="T T T"
C        0.00000000       0.00000000      19.99999980
C        1.22999998       0.72434373      19.99999980
C        0.00000000       0.00000000      23.42999985
C        1.22999998       0.72434373      23.42999985
4
Lattice="2.435399986195794 0.0 0.0 1.2546011736887357 2.1730319102829347 0.0 0.0 0.0 43.43000087383235" Properties=species:S:1:pos:R:3 energy=-1016.8087582014074 pbc="T T T"
C        0.00370815      -0.00560979      19.99926650
C        1.22629185       0.72995344      19.99926650
C        0.00370815      -0.00560979      23.43073350
C        1.22629185       0.72995344      23.43073350
4
Lattice="2.435399986195794 0.0 0.0 1.2546011736887357 2.1730319102829347 0.0 0.0 0.0 43.43000087383235" Properties=species:S:1:pos:R:3 energy=-1016.8109763373632 pbc="T T T"
C        0.00209211      -0.00262126      19.99895881
C        1.22790789       0.72696491      19.99895881
C        0.00209211      -0.00262126      23.43104119
C        1.22790789       0.72696491      23.43104119
4
Lattice="2.435399986195794 0.0 0.0 1.2546011736887357 2.1730319102829347 0.0 0.0 0.0 43.43000087383235" Properties=species:S:1:pos:R:3 energy=-1016.8112499478278 pbc="T T T"
C        0.00244760      -0.00281227      19.99656307
C        1.22755240       0.72715592      19.99656307
C        0.00244760      -0.00281227      23.43343693
C        1.22755240       0.72715592      23.43343693
4
Lattice="2.435399986195794 0.0 0.0 1.2546011736887357 2.1730319102829347 0.0 0.0 0.0 43.43000087383235" Properties=species:S:1:pos:R:3 energy=-1016.811420155034 pbc="T T T"
C        0.00249984      -0.00286646      19.99494712
C        1.22750016       0.72721011      19.99494712
C        0.00249984      -0.00286646      23.43505288
C        1.22750016       0.72721011      23.43505288
4
Lattice="2.435399986195794 0.0 0.0 1.2546011736887357 2.1730319102829347 0.0 0.0 0.0 43.43000087383235" Properties=species:S:1:pos:R:3 energy=-1016.8116675065133 pbc="T T T"
C        0.00254970      -0.00291457      19.99252156
C        1.22745030       0.72725822      19.99252156
C        0.00254970      -0.00291457      23.43747844
C        1.22745030       0.72725822      23.43747844
4
Lattice="2.435399986195794 0.0 0.0 1.2546011736887357 2.1730319102829347 0.0 0.0 0.0 43.43000087383235" Properties=species:S:1:pos:R:3 energy=-1016.8120186694221 pbc="T T T"
C        0.00259165      -0.00296026      19.98888226
C        1.22740835       0.72730391      19.98888226
C        0.00259165      -0.00296026      23.44111774
C        1.22740835       0.72730391      23.44111774
4
Lattice="2.435399986195794 0.0 0.0 1.2546011736887357 2.1730319102829347 0.0 0.0 0.0 43.43000087383235" Properties=species:S:1:pos:R:3 energy=-1016.8125049368517 pbc="T T T"
C        0.00262280      -0.00299832      19.98342275
C        1.22737720       0.72734197      19.98342275
C        0.00262280      -0.00299832      23.44657725
C        1.22737720       0.72734197      23.44657725
4
Lattice="2.435399986195794 0.0 0.0 1.2546011736887357 2.1730319102829347 0.0 0.0 0.0 43.43000087383235" Properties=species:S:1:pos:R:3 energy=-1016.8131544725846 pbc="T T T"
C        0.00263486      -0.00302328      19.97523319
C        1.22736514       0.72736693      19.97523319
C        0.00263486      -0.00302328      23.45476681
C        1.22736514       0.72736693      23.45476681
4
Lattice="2.435399986195794 0.0 0.0 1.2546011736887357 2.1730319102829347 0.0 0.0 0.0 43.43000087383235" Properties=species:S:1:pos:R:3 energy=-1016.8150689294966 pbc="T T T"
C        0.00303804      -0.00274712      19.94452908
C        1.22696196       0.72709077      19.94452908
C        0.00303804      -0.00274712      23.48547092
C        1.22696196       0.72709077      23.48547092
4
Lattice="2.435399986195794 0.0 0.0 1.2546011736887357 2.1730319102829347 0.0 0.0 0.0 43.43000087383235" Properties=species:S:1:pos:R:3 energy=-1016.815042806568 pbc="T T T"
C        0.00352461      -0.00260268      19.93324762
C        1.22647539       0.72694633      19.93324762
C        0.00352461      -0.00260268      23.49675238
C        1.22647539       0.72694633      23.49675238
4
Lattice="2.435399986195794 0.0 0.0 1.2546011736887357 2.1730319102829347 0.0 0.0 0.0 43.43000087383235" Properties=species:S:1:pos:R:3 energy=-1016.8151017192141 pbc="T T T"
C        0.00324678      -0.00268515      19.93968934
C        1.22675322       0.72702880      19.93968934
C        0.00324678      -0.00268515      23.49031066
C        1.22675322       0.72702880      23.49031066
4
Lattice="2.435399986195794 0.0 0.0 1.2546011736887357 2.1730319102829347 0.0 0.0 0.0 43.43000087383235" Properties=species:S:1:pos:R:3 energy=-1016.8147502841915 pbc="T T T"
C       -0.00053490      -0.00263773      19.93952733
C        1.23053490       0.72698138      19.93952733
C       -0.00053490      -0.00263773      23.49047267
C        1.23053490       0.72698138      23.49047267
4
Lattice="2.457052859207204 0.0 0.0 1.2347010034387897 2.1385622964381885 0.0 0.0 0.0 43.29999633290659" Properties=species:S:1:pos:R:3 energy=-1016.8857783907558 pbc="T T T"
C        0.00000000       0.00000000      19.99999896
C        1.23058421       0.71285443      19.99999896
C        1.23058421       0.71285443      23.29999860
C        2.46116842       1.42570861      23.29999860
4
Lattice="2.457052859207204 0.0 0.0 1.2347010034387897 2.1385622964381885 0.0 0.0 0.0 43.34999735859146" Properties=species:S:1:pos:R:3 energy=-1016.8875937982305 pbc="T T T"
C        0.00000000       0.00000000      19.99999896
C        1.23058421       0.71285443      19.99999896
C        1.23058421       0.71285443      23.34999864
C        2.46116842       1.42570861      23.34999864
4
Lattice="2.457052859207204 0.0 0.0 1.2347010034387897 2.1385622964381885 0.0 0.0 0.0 43.369997768865396" Properties=species:S:1:pos:R:3 energy=-1016.8880431942349 pbc="T T T"
C        0.00000000       0.00000000      19.99999896
C        1.23058421       0.71285443      19.99999896
C        1.23058421       0.71285443      23.36999856
C        2.46116842       1.42570861      23.36999856
4
Lattice="2.457052859207204 0.0 0.0 1.2347010034387897 2.1385622964381885 0.0 0.0 0.0 43.399998384276316" Properties=species:S:1:pos:R:3 energy=-1016.8883697308413 pbc="T T T"
C        0.00000000       0.00000000      19.99999896
C        1.23058421       0.71285443      19.99999896
C        1.23058421       0.71285443      23.39999868
C        2.46116842       1.42570861      23.39999868
4
Lattice="2.457052859207204 0.0 0.0 1.2347010034387897 2.1385622964381885 0.0 0.0 0.0 43.44999695290833" Properties=species:S:1:pos:R:3 energy=-1016.8880154386235 pbc="T T T"
C        0.00000000       0.00000000      19.99999896
C        1.23058421       0.71285443      19.99999896
C        1.23058421       0.71285443      23.44999873
C        2.46116842       1.42570861      23.44999873
4
Lattice="2.457052859207204 0.0 0.0 1.2347010034387897 2.1385622964381885 0.0 0.0 0.0 43.549996547225206" Properties=species:S:1:pos:R:3 energy=-1016.8695477526784 pbc="T T T"
C        0.00000000       0.00000000      19.99999896
C        1.23058421       0.71285443      19.99999896
C        0.00000000       0.00000000      23.54999857
C        1.23058421       0.71285443      23.54999857
4
Lattice="2.457052859207204 0.0 0.0 1.2347010034387897 2.1385622964381885 0.0 0.0 0.0 43.649998598594934" Properties=species:S:1:pos:R:3 energy=-1016.8690277431328 pbc="T T T"
C        0.00000000       0.00000000      19.99999896
C        1.23058421       0.71285443      19.99999896
C        0.00000000       0.00000000      23.64999865
C        1.23058421       0.71285443      23.64999865
4
Lattice="2.457052859207204 0.0 0.0 1.2347010034387897 2.1385622964381885 0.0 0.0 0.0 43.69999716722694" Properties=species:S:1:pos:R:3 energy=-1016.8680342555078 pbc="T T T"
C        0.00000000       0.00000000      19.99999896
C        1.23058421       0.71285443      19.99999896
C        0.00000000       0.00000000      23.69999870
C        1.23058421       0.71285443      23.69999870
4
Lattice="2.447700181226763 0.0 0.0 1.2546005479901334 2.173031505390402 0.0 0.0 0.0 43.430002035440346" Properties=species:S:1:pos:R:3 energy=-1016.8474257139372 pbc="T T T"
C        0.00000000       0.00000000      20.00000153
C        1.23410008       0.72434375      20.00000153
C        1.23410008       0.72434375      23.43000173
C        2.46820016       1.44868751      23.43000173
4
Lattice="2.447700181226763 0.0 0.0 1.2546005479901334 2.173031505390402 0.0 0.0 0.0 43.430002035440346" Properties=species:S:1:pos:R:3 energy=-1016.8487368944687 pbc="T T T"
C        0.00133797      -0.00214997      19.99997519
C        1.23276811       0.72649604      20.00009790
C        1.23543189       0.72219126      23.42990210
C        2.46686203       1.45083727      23.43002481
4
Lattice="2.469400151009717 0.0 0.0 1.2347000755048585 2.1385622657781904 0.0 0.0 0.0 43.30000315349861" Properties=species:S:1:pos:R:3 energy=-1016.8888320522532 pbc="T T T"
C        0.00000000       0.00000000      20.00000124
C        1.23470008       0.71285434      20.00000124
C        1.23470008       0.71285434      23.30000142
C        2.46940015       1.42570892      23.30000142
4
Lattice="2.469400151009717 0.0 0.0 1.2347000755048585 2.1385622657781904 0.0 0.0 0.0 43.350003567756254" Properties=species:S:1:pos:R:3 energy=-1016.8906788888762 pbc="T T T"
C        0.00000000       0.00000000      20.00000124
C        1.23470008       0.71285434      20.00000124
C        1.23470008       0.71285434      23.35000134
C        2.46940015       1.42570892      23.35000134
4
Lattice="2.469400151009717 0.0 0.0 1.2347000755048585 2.1385622657781904 0.0 0.0 0.0 43.37000323957928" Properties=species:S:1:pos:R:3 energy=-1016.8911432511419 pbc="T T T"
C        0.00000000       0.00000000      20.00000124
C        1.23470008       0.71285434      20.00000124
C        1.23470008       0.71285434      23.37000150
C        2.46940015       1.42570892      23.37000150
4
Lattice="2.469400151009717 0.0 0.0 1.2347000755048585 2.1385622657781904 0.0 0.0 0.0 43.40000151261375" Properties=species:S:1:pos:R:3 energy=-1016.8914978154736 pbc="T T T"
C        0.00000000       0.00000000      20.00000124
C        1.23470008       0.71285434      20.00000124
C        1.23470008       0.71285434      23.40000151
C        2.46940015       1.42570892      23.40000151
4
Lattice="2.469400151009717 0.0 0.0 1.2347000755048585 2.1385622657781904 0.0 0.0 0.0 43.45000192687139" Properties=species:S:1:pos:R:3 energy=-1016.8911708706963 pbc="T T T"
C        0.00000000       0.00000000      20.00000124
C        1.23470008       0.71285434      20.00000124
C        1.23470008       0.71285434      23.45000143
C        2.46940015       1.42570892      23.45000143
4
Lattice="2.469400151009717 0.0 0.0 1.2347000755048585 2.1385622657781904 0.0 0.0 0.0 43.600003169644324" Properties=species:S:1:pos:R:3 energy=-1016.8725976045821 pbc="T T T"
C        0.00000000       0.00000000      20.00000124
C        1.23470008       0.71285434      20.00000124
C        0.00000000       0.00000000      23.60000143
C        1.23470008       0.71285434      23.60000143
4
Lattice="2.469400151009717 0.0 0.0 1.2347000755048585 2.1385622657781904 0.0 0.0 0.0 43.65000358390197" Properties=species:S:1:pos:R:3 energy=-1016.8720980035744 pbc="T T T"
C        0.00000000       0.00000000      20.00000124
C        1.23470008       0.71285434      20.00000124
C        0.00000000       0.00000000      23.65000136
C        1.23470008       0.71285434      23.65000136
4
Lattice="2.447700181226763 0.0 0.0 1.2546005479901334 2.173031505390402 0.0 0.0 0.0 43.430002035440346" Properties=species:S:1:pos:R:3 energy=-1016.8228232214998 pbc="T T T"
C        0.00422289      -0.00455572      19.99937299
C        1.22987711       0.72889937      19.99937299
C        0.00422289      -0.00455572      23.43062701
C        1.22987711       0.72889937      23.43062701
4
Lattice="2.447700181226763 0.0 0.0 1.2546005479901334 2.173031505390402 0.0 0.0 0.0 43.430002035440346" Properties=species:S:1:pos:R:3 energy=-1016.8252427216962 pbc="T T T"
C        0.00181420      -0.00224780      19.99907376
C        1.23228580       0.72659145      19.99907376
C        0.00181420      -0.00224780      23.43092624
C        1.23228580       0.72659145      23.43092624
4
Lattice="2.447700181226763 0.0 0.0 1.2546005479901334 2.173031505390402 0.0 0.0 0.0 43.430002035440346" Properties=species:S:1:pos:R:3 energy=-1016.8253277572708 pbc="T T T"
C        0.00177312      -0.00228198      19.99834369
C        1.23232688       0.72662563      19.99834369
C        0.00177312      -0.00228198      23.43165631
C        1.23232688       0.72662563      23.43165631
4
Lattice="2.447700181226763 0.0 0.0 1.2546005479901334 2.173031505390402 0.0 0.0 0.0 43.430002035440346" Properties=species:S:1:pos:R:3 energy=-1016.8256393276162 pbc="T T T"
C        0.00173066      -0.00231576      19.99559926
C        1.23236934       0.72665941      19.99559926
C        0.00173066      -0.00231576      23.43440074
C        1.23236934       0.72665941      23.43440074
4
Lattice="2.447700181226763 0.0 0.0 1.2546005479901334 2.173031505390402 0.0 0.0 0.0 43.430002035440346" Properties=species:S:1:pos:R:3 energy=-1016.8259083121455 pbc="T T T"
C        0.00172223      -0.00232099      19.99312872
C        1.23237777       0.72666464      19.99312872
C        0.00172223      -0.00232099      23.43687128
C        1.23237777       0.72666464      23.43687128
4
Lattice="2.447700181226763 0.0 0.0 1.2546005479901334 2.173031505390402 0.0 0.0 0.0 43.430002035440346" Properties=species:S:1:pos:R:3 energy=-1016.8262894075765 pbc="T T T"
C        0.00172183      -0.00231844      19.98942287
C        1.23237817       0.72666209      19.98942287
C        0.00172183      -0.00231844      23.44057713
C        1.23237817       0.72666209      23.44057713
4
Lattice="2.444706096581899 0.0 0.0 1.2347012587847848 2.1385628862252375 0.0 0.0 0.0 43.40000190666026" Properties=species:S:1:pos:R:3 energy=-1016.8783194783244 pbc="T T T"
C        0.00000000       0.00000000      20.00000074
C        1.22646871       0.71285430      20.00000074
C        1.22646871       0.71285430      23.40000092
C        2.45293742       1.42570884      23.40000092
4
Lattice="2.481746913635022 0.0 0.0 1.234698870496387 2.13856350517683 0.0 0.0 0.0 43.299998838245806" Properties=species:S:1:pos:R:3 energy=-1016.8851770191723 pbc="T T T"
C        0.00000000       0.00000000      19.99999931
C        1.23881559       0.71285425      19.99999931
C        1.23881559       0.71285425      23.29999928
C        2.47763118       1.42570876      23.29999928
4
Lattice="2.481746913635022 0.0 0.0 1.234698870496387 2.13856350517683 0.0 0.0 0.0 43.349998593314815" Properties=species:S:1:pos:R:3 energy=-1016.8870701151478 pbc="T T T"
C        0.00000000       0.00000000      19.99999931
C        1.23881559       0.71285425      19.99999931
C        1.23881559       0.71285425      23.34999928
C        2.47763118       1.42570876      23.34999928
4
Lattice="2.481746913635022 0.0 0.0 1.234698870496387 2.13856350517683 0.0 0.0 0.0 43.44999810345282" Properties=species:S:1:pos:R:3 energy=-1016.8876279485172 pbc="T T T"
C        0.00000000       0.00000000      19.99999931
C        1.23881559       0.71285425      19.99999931
C        1.23881559       0.71285425      23.44999929
C        2.47763118       1.42570876      23.44999929
4
Lattice="2.481746913635022 0.0 0.0 1.234698870496387 2.13856350517683 0.0 0.0 0.0 43.49999785852183" Properties=species:S:1:pos:R:3 energy=-1016.8679811933093 pbc="T T T"
C        0.00000000       0.00000000      19.99999931
C        1.23881559       0.71285425      19.99999931
C        0.00000000       0.00000000      23.49999929
C        1.23881559       0.71285425      23.49999929
4
Lattice="2.481746913635022 0.0 0.0 1.234698870496387 2.13856350517683 0.0 0.0 0.0 43.54999761359083" Properties=species:S:1:pos:R:3 energy=-1016.8689763136173 pbc="T T T"
C        0.00000000       0.00000000      19.99999931
C        1.23881559       0.71285425      19.99999931
C        0.00000000       0.00000000      23.54999929
C        1.23881559       0.71285425      23.54999929
4
Lattice="2.481746913635022 0.0 0.0 1.234698870496387 2.13856350517683 0.0 0.0 0.0 43.599997368659835" Properties=species:S:1:pos:R:3 energy=-1016.868973456422 pbc="T T T"
C        0.00000000       0.00000000      19.99999931
C        1.23881559       0.71285425      19.99999931
C        0.00000000       0.00000000      23.59999930
C        1.23881559       0.71285425      23.59999930
4
Lattice="2.481746913635022 0.0 0.0 1.234698870496387 2.13856350517683 0.0 0.0 0.0 43.699999360544766" Properties=species:S:1:pos:R:3 energy=-1016.8675747912913 pbc="T T T"
C        0.00000000       0.00000000      19.99999931
C        1.23881559       0.71285425      19.99999931
C        0.00000000       0.00000000      23.69999906
C        1.23881559       0.71285425      23.69999906
4
Lattice="2.4599998470805247 0.0 0.0 1.2545999220110675 2.173031024919193 0.0 0.0 0.0 43.4299984202874" Properties=species:S:1:pos:R:3 energy=-1016.8554650451865 pbc="T T T"
C        0.00000000       0.00000000      19.99999875
C        1.23819984       0.72434351      19.99999875
C        1.23819984       0.72434351      23.42999844
C        2.47639993       1.44868727      23.42999844
4
Lattice="2.4599998470805247 0.0 0.0 1.2545999220110675 2.173031024919193 0.0 0.0 0.0 43.4299984202874" Properties=species:S:1:pos:R:3 energy=-1016.8553796014411 pbc="T T T"
C        0.00195565      -0.00343945      19.99993966
C        1.23625984       0.72779445      20.00020777
C        1.24014016       0.72089285      23.42979223
C        2.47444435       1.45212675      23.43006034
4
Lattice="2.4599998470805247 0.0 0.0 1.2545999220110675 2.173031024919193 0.0 0.0 0.0 43.4299984202874" Properties=species:S:1:pos:R:3 energy=-1016.8562056029983 pbc="T T T"
C        0.00095118      -0.00167287      19.99997065
C        1.23725635       0.72602204      20.00010106
C        1.23914365       0.72266526      23.42989894
C        2.47544882       1.45036017      23.43002935
4
Lattice="2.444706096581899 0.0 0.0 1.2347012587847848 2.1385628862252375 0.0 0.0 0.0 43.450001035747555" Properties=species:S:1:pos:R:3 energy=-1016.8779439612272 pbc="T T T"
C        0.00000000       0.00000000      20.00000074
C        1.22646871       0.71285430      20.00000074
C        1.22646871       0.71285430      23.45000103
C        2.45293742       1.42570884      23.45000103
4
Lattice="2.4940942054375355 0.0 0.0 1.234701336401852 2.13856357054662 0.0 0.0 0.0 43.30000441791993" Properties=species:S:1:pos:R:3 energy=-1016.8750200980307 pbc="T T T"
C        0.00000000       0.00000000      20.00000176
C        1.24293135       0.71285452      20.00000176
C        1.24293135       0.71285452      23.30000191
C        2.48586295       1.42570880      23.30000191
4
Lattice="2.4940942054375355 0.0 0.0 1.234701336401852 2.13856357054662 0.0 0.0 0.0 43.37000366588974" Properties=species:S:1:pos:R:3 energy=-1016.8774534760329 pbc="T T T"
C        0.00000000       0.00000000      20.00000176
C        1.24293135       0.71285452      20.00000176
C        1.24293135       0.71285452      23.37000190
C        2.48586295       1.42570880      23.37000190
4
Lattice="2.4940942054375355 0.0 0.0 1.234701336401852 2.13856357054662 0.0 0.0 0.0 43.400002630992745" Properties=species:S:1:pos:R:3 energy=-1016.877847905042 pbc="T T T"
C        0.00000000       0.00000000      20.00000176
C        1.24293135       0.71285452      20.00000176
C        1.24293135       0.71285452      23.40000186
C        2.48586295       1.42570880      23.40000186
4
Lattice="2.4940942054375355 0.0 0.0 1.234701336401852 2.13856357054662 0.0 0.0 0.0 43.45000423162335" Properties=species:S:1:pos:R:3 energy=-1016.8775987848228 pbc="T T T"
C        0.00000000       0.00000000      20.00000176
C        1.24293135       0.71285452      20.00000176
C        1.24293135       0.71285452      23.45000197
C        2.48586295       1.42570880      23.45000197
4
Lattice="2.4940942054375355 0.0 0.0 1.234701336401852 2.13856357054662 0.0 0.0 0.0 43.500003338159765" Properties=species:S:1:pos:R:3 energy=-1016.8576869907359 pbc="T T T"
C        0.00000000       0.00000000      20.00000176
C        1.24293135       0.71285452      20.00000176
C        0.00000000       0.00000000      23.50000182
C        1.24293135       0.71285452      23.50000182
4
Lattice="2.4940942054375355 0.0 0.0 1.234701336401852 2.13856357054662 0.0 0.0 0.0 43.60000404532678" Properties=species:S:1:pos:R:3 energy=-1016.8588977612612 pbc="T T T"
C        0.00000000       0.00000000      20.00000176
C        1.24293135       0.71285452      20.00000176
C        0.00000000       0.00000000      23.60000203
C        1.24293135       0.71285452      23.60000203
4
Lattice="2.4940942054375355 0.0 0.0 1.234701336401852 2.13856357054662 0.0 0.0 0.0 43.65000315186319" Properties=species:S:1:pos:R:3 energy=-1016.8584678213961 pbc="T T T"
C        0.00000000       0.00000000      20.00000176
C        1.24293135       0.71285452      20.00000176
C        0.00000000       0.00000000      23.65000189
C        1.24293135       0.71285452      23.65000189
4
Lattice="2.4940942054375355 0.0 0.0 1.234701336401852 2.13856357054662 0.0 0.0 0.0 43.7000047524938" Properties=species:S:1:pos:R:3 energy=-1016.8575795057696 pbc="T T T"
C        0.00000000       0.00000000      20.00000176
C        1.24293135       0.71285452      20.00000176
C        0.00000000       0.00000000      23.70000199
C        1.24293135       0.71285452      23.70000199
4
Lattice="2.4599998470805247 0.0 0.0 1.2545999220110675 2.173031024919193 0.0 0.0 0.0 43.4299984202874" Properties=species:S:1:pos:R:3 energy=-1016.831597940398 pbc="T T T"
C        0.00000000       0.00000000      19.99999875
C        1.23819984       0.72434351      19.99999875
C        0.00000000       0.00000000      23.42999844
C        1.23819984       0.72434351      23.42999844
4
Lattice="2.4599998470805247 0.0 0.0 1.2545999220110675 2.173031024919193 0.0 0.0 0.0 43.4299984202874" Properties=species:S:1:pos:R:3 energy=-1016.8313817459532 pbc="T T T"
C        0.00333157      -0.00332602      19.99935681
C        1.23486843       0.72766967      19.99935681
C        0.00333157      -0.00332602      23.43064319
C        1.23486843       0.72766967      23.43064319
4
Lattice="2.4599998470805247 0.0 0.0 1.2545999220110675 2.173031024919193 0.0 0.0 0.0 43.4299984202874" Properties=species:S:1:pos:R:3 energy=-1016.8326404085138 pbc="T T T"
C        0.00158759      -0.00158494      19.99969350
C        1.23661241       0.72592859      19.99969350
C        0.00158759      -0.00158494      23.43030650
C        1.23661241       0.72592859      23.43030650
4
Lattice="2.4599998470805247 0.0 0.0 1.2545999220110675 2.173031024919193 0.0 0.0 0.0 43.4299984202874" Properties=species:S:1:pos:R:3 energy=-1016.8329424548748 pbc="T T T"
C        0.00147296      -0.00169561      19.99720817
C        1.23672704       0.72603926      19.99720817
C        0.00147296      -0.00169561      23.43279183
C        1.23672704       0.72603926      23.43279183
4
Lattice="2.4599998470805247 0.0 0.0 1.2545999220110675 2.173031024919193 0.0 0.0 0.0 43.4299984202874" Properties=species:S:1:pos:R:3 energy=-1016.8331356557002 pbc="T T T"
C        0.00147221      -0.00169434      19.99556028
C        1.23672779       0.72603799      19.99556028
C        0.00147221      -0.00169434      23.43443972
C        1.23672779       0.72603799      23.43443972
4
Lattice="2.4599998470805247 0.0 0.0 1.2545999220110675 2.173031024919193 0.0 0.0 0.0 43.4299984202874" Properties=species:S:1:pos:R:3 energy=-1016.8334128036449 pbc="T T T"
C        0.00147404      -0.00168979      19.99308846
C        1.23672596       0.72603344      19.99308846
C        0.00147404      -0.00168979      23.43691154
C        1.23672596       0.72603344      23.43691154
4
Lattice="2.4599998470805247 0.0 0.0 1.2545999220110675 2.173031024919193 0.0 0.0 0.0 43.4299984202874" Properties=species:S:1:pos:R:3 energy=-1016.8338031509466 pbc="T T T"
C        0.00147738      -0.00168275      19.98938073
C        1.23672262       0.72602640      19.98938073
C        0.00147738      -0.00168275      23.44061927
C        1.23672262       0.72602640      23.44061927
4
Lattice="2.444706096581899 0.0 0.0 1.2347012587847848 2.1385628862252375 0.0 0.0 0.0 43.50000260954095" Properties=species:S:1:pos:R:3 energy=-1016.858585918802 pbc="T T T"
C        0.00000000       0.00000000      20.00000074
C        1.22646871       0.71285430      20.00000074
C        0.00000000       0.00000000      23.50000089
C        1.22646871       0.71285430      23.50000089
4
Lattice="2.4723000421114945 0.0 0.0 1.2546007962700254 2.17303059431394 0.0 0.0 0.0 43.429999867157385" Properties=species:S:1:pos:R:3 energy=-1016.8567235716903 pbc="T T T"
C        0.00000000       0.00000000      20.00000025
C        1.24230011       0.72434361      20.00000025
C        1.24230011       0.72434361      23.43000036
C        2.48459998       1.44868723      23.43000036
4
Lattice="2.4723000421114945 0.0 0.0 1.2546007962700254 2.17303059431394 0.0 0.0 0.0 43.429999867157385" Properties=species:S:1:pos:R:3 energy=-1016.8567194899828 pbc="T T T"
C        0.00121753      -0.00246584      19.99993107
C        1.24110159       0.72682522      20.00020750
C        1.24349841       0.72186208      23.42979250
C        2.48338247       1.45115314      23.43006893
4
Lattice="2.4723000421114945 0.0 0.0 1.2546007962700254 2.17303059431394 0.0 0.0 0.0 43.429999867157385" Properties=species:S:1:pos:R:3 energy=-1016.857091741714 pbc="T T T"
C        0.00060704      -0.00122943      19.99996563
C        1.24170249       0.72558092      20.00010346
C        1.24289751       0.72310638      23.42989654
C        2.48399296       1.44991673      23.43003437
4
Lattice="2.4723000421114945 0.0 0.0 1.2546007962700254 2.17303059431394 0.0 0.0 0.0 43.429999867157385" Properties=species:S:1:pos:R:3 energy=-1016.8329138829217 pbc="T T T"
C        0.00000000       0.00000000      20.00000025
C        1.24230011       0.72434361      20.00000025
C        0.00000000       0.00000000      23.43000036
C        1.24230011       0.72434361      23.43000036
4
Lattice="2.4723000421114945 0.0 0.0 1.2546007962700254 2.17303059431394 0.0 0.0 0.0 43.429999867157385" Properties=species:S:1:pos:R:3 energy=-1016.8335657316223 pbc="T T T"
C        0.00121863      -0.00114049      19.99900052
C        1.24108137       0.72548414      19.99900052
C        0.00121863      -0.00114049      23.43099948
C        1.24108137       0.72548414      23.43099948
4
Lattice="2.4723000421114945 0.0 0.0 1.2546007962700254 2.17303059431394 0.0 0.0 0.0 43.429999867157385" Properties=species:S:1:pos:R:3 energy=-1016.8337953957019 pbc="T T T"
C        0.00119055      -0.00116621      19.99714092
C        1.24110945       0.72550986      19.99714092
C        0.00119055      -0.00116621      23.43285908
C        1.24110945       0.72550986      23.43285908
4
Lattice="2.4723000421114945 0.0 0.0 1.2546007962700254 2.17303059431394 0.0 0.0 0.0 43.429999867157385" Properties=species:S:1:pos:R:3 energy=-1016.8339958075442 pbc="T T T"
C        0.00119078      -0.00116305      19.99546635
C        1.24110922       0.72550670      19.99546635
C        0.00119078      -0.00116305      23.43453365
C        1.24110922       0.72550670      23.43453365
4
Lattice="2.4723000421114945 0.0 0.0 1.2546007962700254 2.17303059431394 0.0 0.0 0.0 43.429999867157385" Properties=species:S:1:pos:R:3 energy=-1016.8342832958149 pbc="T T T"
C        0.00119096      -0.00115865      19.99295451
C        1.24110904       0.72550230      19.99295451
C        0.00119096      -0.00115865      23.43704549
C        1.24110904       0.72550230      23.43704549
4
Lattice="2.4723000421114945 0.0 0.0 1.2546007962700254 2.17303059431394 0.0 0.0 0.0 43.429999867157385" Properties=species:S:1:pos:R:3 energy=-1016.8346886093775 pbc="T T T"
C        0.00119134      -0.00115269      19.98918675
C        1.24110866       0.72549634      19.98918675
C        0.00119134      -0.00115269      23.44081325
C        1.24110866       0.72549634      23.44081325
4
Lattice="2.4723000421114945 0.0 0.0 1.2546007962700254 2.17303059431394 0.0 0.0 0.0 43.429999867157385" Properties=species:S:1:pos:R:3 energy=-1016.8352490278281 pbc="T T T"
C        0.00119182      -0.00114448      19.98353510
C        1.24110818       0.72548813      19.98353510
C        0.00119182      -0.00114448      23.44646490
C        1.24110818       0.72548813      23.44646490
4
Lattice="2.444706096581899 0.0 0.0 1.2347012587847848 2.1385628862252375 0.0 0.0 0.0 43.60000086771553" Properties=species:S:1:pos:R:3 energy=-1016.859629883544 pbc="T T T"
C        0.00000000       0.00000000      20.00000074
C        1.22646871       0.71285430      20.00000074
C        0.00000000       0.00000000      23.60000086
C        1.22646871       0.71285430      23.60000086
4
Lattice="2.4846002371424643 0.0 0.0 1.2545988897450873 2.1730313674047994 0.0 0.0 0.0 43.4300046501732" Properties=species:S:1:pos:R:3 energy=-1016.8514491891556 pbc="T T T"
C        0.00059985      -0.00160072      19.99992421
C        1.24582294       0.72596225      20.00020783
C        1.24697706       0.72272505      23.42979217
C        2.49220015       1.45028802      23.43007579
4
Lattice="2.4846002371424643 0.0 0.0 1.2545988897450873 2.1730313674047994 0.0 0.0 0.0 43.4300046501732" Properties=species:S:1:pos:R:3 energy=-1016.8515856542456 pbc="T T T"
C        0.00029723      -0.00081475      19.99993579
C        1.24613906       0.72518352      20.00026605
C        1.24666094       0.72350378      23.42973395
C        2.49250277       1.44950205      23.43006421
4
Lattice="2.4846002371424643 0.0 0.0 1.2545988897450873 2.1730313674047994 0.0 0.0 0.0 43.4300046501732" Properties=species:S:1:pos:R:3 energy=-1016.8276558272173 pbc="T T T"
C        0.00186443      -0.00121182      19.99932798
C        1.24453557       0.72555547      19.99932798
C        0.00186443      -0.00121182      23.43067202
C        1.24453557       0.72555547      23.43067202
4
Lattice="2.4846002371424643 0.0 0.0 1.2545988897450873 2.1730313674047994 0.0 0.0 0.0 43.4300046501732" Properties=species:S:1:pos:R:3 energy=-1016.8279687581318 pbc="T T T"
C        0.00098068      -0.00066398      19.99890414
C        1.24541932       0.72500763      19.99890414
C        0.00098068      -0.00066398      23.43109586
C        1.24541932       0.72500763      23.43109586
4
Lattice="2.4846002371424643 0.0 0.0 1.2545988897450873 2.1730313674047994 0.0 0.0 0.0 43.4300046501732" Properties=species:S:1:pos:R:3 energy=-1016.8280906651315 pbc="T T T"
C        0.00080218      -0.00052187      19.99793144
C        1.24559782       0.72486552      19.99793144
C        0.00080218      -0.00052187      23.43206856
C        1.24559782       0.72486552      23.43206856
4
Lattice="2.4846002371424643 0.0 0.0 1.2545988897450873 2.1730313674047994 0.0 0.0 0.0 43.4300046501732" Properties=species:S:1:pos:R:3 energy=-1016.8282184225789 pbc="T T T"
C        0.00070219      -0.00046548      19.99683845
C        1.24569781       0.72480913      19.99683845
C        0.00070219      -0.00046548      23.43316155
C        1.24569781       0.72480913      23.43316155
4
Lattice="2.4846002371424643 0.0 0.0 1.2545988897450873 2.1730313674047994 0.0 0.0 0.0 43.4300046501732" Properties=species:S:1:pos:R:3 energy=-1016.8284076777535 pbc="T T T"
C        0.00062922      -0.00040155      19.99519280
C        1.24577078       0.72474520      19.99519280
C        0.00062922      -0.00040155      23.43480720
C        1.24577078       0.72474520      23.43480720
4
Lattice="2.4846002371424643 0.0 0.0 1.2545988897450873 2.1730313674047994 0.0 0.0 0.0 43.4300046501732" Properties=species:S:1:pos:R:3 energy=-1016.8286823766737 pbc="T T T"
C        0.00055036      -0.00036635      19.99272155
C        1.24584964       0.72471000      19.99272155
C        0.00055036      -0.00036635      23.43727845
C        1.24584964       0.72471000      23.43727845
4
Lattice="2.4846002371424643 0.0 0.0 1.2545988897450873 2.1730313674047994 0.0 0.0 0.0 43.4300046501732" Properties=species:S:1:pos:R:3 energy=-1016.8296290607184 pbc="T T T"
C        0.00043902      -0.00030268      19.98344985
C        1.24596098       0.72464633      19.98344985
C        0.00043902      -0.00030268      23.44655015
C        1.24596098       0.72464633      23.44655015
4
Lattice="2.4846002371424643 0.0 0.0 1.2545988897450873 2.1730313674047994 0.0 0.0 0.0 43.4300046501732" Properties=species:S:1:pos:R:3 energy=-1016.8303722036118 pbc="T T T"
C        0.00044322      -0.00024934      19.97510446
C        1.24595678       0.72459299      19.97510446
C        0.00044322      -0.00024934      23.45489554
C        1.24595678       0.72459299      23.45489554
4
Lattice="2.4846002371424643 0.0 0.0 1.2545988897450873 2.1730313674047994 0.0 0.0 0.0 43.4300046501732" Properties=species:S:1:pos:R:3 energy=-1016.8322300608453 pbc="T T T"
C        0.00056528      -0.00027185      19.94380948
C        1.24583472       0.72461550      19.94380948
C        0.00056528      -0.00027185      23.48619052
C        1.24583472       0.72461550      23.48619052
4
Lattice="2.4846002371424643 0.0 0.0 1.2545988897450873 2.1730313674047994 0.0 0.0 0.0 43.4300046501732" Properties=species:S:1:pos:R:3 energy=-1016.8324696570802 pbc="T T T"
C        0.00061002      -0.00058358      19.92770410
C        1.24578998       0.72492723      19.92770410
C        0.00061002      -0.00058358      23.50229590
C        1.24578998       0.72492723      23.50229590
4
Lattice="2.4846002371424643 0.0 0.0 1.2545988897450873 2.1730313674047994 0.0 0.0 0.0 43.4300046501732" Properties=species:S:1:pos:R:3 energy=-1016.8324795892353 pbc="T T T"
C        0.00082765      -0.00042031      19.92764468
C        1.24557235       0.72476396      19.92764468
C        0.00082765      -0.00042031      23.50235532
C        1.24557235       0.72476396      23.50235532
4
Lattice="2.444706096581899 0.0 0.0 1.2347012587847848 2.1385628862252375 0.0 0.0 0.0 43.700001570596214" Properties=species:S:1:pos:R:3 energy=-1016.858039514214 pbc="T T T"
C        0.00000000       0.00000000      20.00000074
C        1.22646871       0.71285430      20.00000074
C        0.00000000       0.00000000      23.70000083
C        1.22646871       0.71285430      23.70000083
64
Lattice="9.860000170089029 0.0 0.0 4.930000085044514 8.53900664730135 0.0 0.0 0.0 29.999997077512198" Properties=species:S:1:pos:R:3 energy=-16269.846381055575 pbc="T T T"
C        0.00000000       0.00000000       0.00000000
C        1.23250002       0.71158438       0.00000000
C        0.00000000       0.00000000       3.40000019
C        1.23250002       0.71158438       3.40000019
C        2.46500004       0.00000000       0.00000000
C        3.69750006       0.71158438       0.00000000
C        2.46500004       0.00000000       3.40000019
C        3.69750006       0.71158438       3.40000019
C        4.93000009       0.00000000       0.00000000
C        6.16250011       0.71158438       0.00000000
C        4.93000009       0.00000000       3.40000019
C        6.16250011       0.71158438       3.40000019
C        7.39500013       0.00000000       0.00000000
C        8.62750015       0.71158438       0.00000000
C        7.39500013       0.00000000       3.40000019
C        8.62750015       0.71158438       3.40000019
C        1.23250002       2.13475314       0.00000000
C        2.46500004       2.84633654       0.00000000
C        1.23250002       2.13475314       3.40000019
C        2.46500004       2.84633654       3.40000019
C        3.69750006       2.13475314       0.00000000
C        4.93000009       2.84633654       0.00000000
C        3.69750006       2.13475314       3.40000019
C        4.93000009       2.84633654       3.40000019
C        6.16250011       2.13475314       0.00000000
C        7.39500013       2.84633654       0.00000000
C        6.16250011       2.13475314       3.40000019
C        7.39500013       2.84633654       3.40000019
C        8.62750015       2.13475314       0.00000000
C        9.86000017       2.84633654       0.00000000
C        8.62750015       2.13475314       3.40000019
C        9.86000017       2.84633654       3.40000019
C        2.46500004       4.26950530       0.00000000
C        3.69750006       4.98108968       0.00000000
C        2.46500004       4.26950530       3.40000019
C        3.69750006       4.98108968       3.40000019
C        4.93000009       4.26950530       0.00000000
C        6.16250011       4.98108968       0.00000000
C        4.93000009       4.26950530       3.40000019
C        6.16250011       4.98108968       3.40000019
C        7.39500013       4.26950530       0.00000000
C        8.62750015       4.98108968       0.00000000
C        7.39500013       4.26950530       3.40000019
C        8.62750015       4.98108968       3.40000019
C        9.86000017       4.26950530       0.00000000
C       11.09250019       4.98108968       0.00000000
C        9.86000017       4.26950530       3.40000019
C       11.09250019       4.98108968       3.40000019
C        3.69750006       6.40425844       0.00000000
C        4.93000009       7.11584183       0.00000000
C        3.69750006       6.40425844       3.40000019
C        4.93000009       7.11584183       3.40000019
C        6.16250011       6.40425844       0.00000000
C        7.39500013       7.11584183       0.00000000
C        6.16250011       6.40425844       3.40000019
C        7.39500013       7.11584183       3.40000019
C        8.62750015       6.40425844       0.00000000
C        9.86000017       7.11584183       0.00000000
C        8.62750015       6.40425844       3.40000019
C        9.86000017       7.11584183       3.40000019
C       11.09250019       6.40425844       0.00000000
C       12.32500021       7.11584183       0.00000000
C       11.09250019       6.40425844       3.40000019
C       12.32500021       7.11584183       3.40000019
64
Lattice="9.860000170089029 0.0 0.0 4.930000085044514 8.53900664730135 0.0 0.0 0.0 29.999997077512198" Properties=species:S:1:pos:R:3 energy=-16268.389734996597 pbc="T T T"
C        4.95217128       8.53489404      -0.03797283
C        1.27123306       0.68645617      -0.01841947
C        9.82431486       0.06130554       3.43500320
C        1.21324344       0.72439055       3.42705505
C        7.42643775       8.52661854      -0.02246305
C        3.71438926       0.72459268      -0.03167821
C        7.38263273       8.53705634       3.40804694
C        3.68337167       0.67769457       3.42507812
C        9.84073373       8.51008825      -0.01480676
C        6.14001043       0.65558550      -0.00517453
C        9.86346596       8.53052113       3.42839207
C        6.19666501       0.71926631       3.39590731
C       12.33543406       8.51498867      -0.03845893
C        8.65119077       0.70526412      -0.01115560
C       12.35204619       8.52050731       3.39358922
C        8.60285409       0.76312852       3.45493617
C        1.23300584       2.10506468      -0.10437007
C        2.44460167       2.82358557       0.04143073
C       11.07418327       2.12659103       3.41793849
C        2.47762676       2.81247532       3.45537198
C        3.66492164       2.13084464       0.00940940
C        4.88634296       2.87332927      -0.00525341
C        3.70380652       2.10034075       3.39706191
C        4.92487781       2.85115906       3.35971125
C        6.11199521       2.15047491      -0.04365318
C        7.38549903       2.86960121      -0.07091312
C        6.17651905       2.15457766       3.41392054
C        7.40395202       2.85902143       3.40119325
C        8.63076972       2.14564154       0.01295210
C        9.86803508       2.84855799       0.00745712
C        8.63509136       2.16975121       3.42381604
C        9.87068151       2.86608907       3.39580476
C       12.32901915       4.29657001       0.02372612
C        3.68991575       4.99991143      -0.03021498
C       12.31154526       4.29299675       3.48343256
C        3.71710963       4.94103934       3.42679968
C        4.93276680       4.28569246       0.03006610
C        6.17143327       4.99122576       0.02247291
C        4.95393524       4.24631359       3.39721869
C        6.15238868       4.97021114       3.38320467
C        7.40568344       4.29497072      -0.05064786
C        8.66166111       4.97623757      -0.06075831
C        7.36664080       4.26384960       3.46411978
C        8.62389730       4.96836042       3.38916208
C        9.90181249       4.26962362       0.00704694
C       11.11397429       4.99221964       0.09039550
C        9.86782014       4.28670607       3.44130768
C       11.06888056       5.03094677       3.41487400
C       13.52926908       6.41661006       0.04035599
C        4.91274213       7.08839553      -0.05309807
C        3.71211357       6.36818957       3.38646932
C        4.91952383       7.16511915       3.37361286
C        6.15486354       6.39214050      -0.05954454
C        7.38484729       7.11857108      -0.01749361
C        6.14844566       6.41972286       3.41305188
C        7.40001690       7.10393489       3.38767618
C        8.64399790       6.42247972      -0.02534414
C        9.87357542       7.09286704      -0.00294913
C        8.63859561       6.39358203       3.35974379
C        9.86175722       7.11866968       3.41862179
C       11.09804546       6.38481254       0.03908504
C       12.29957324       7.11012500       0.02087461
C       11.08020477       6.42162190       3.36515200
C       12.34185095       7.07684652       3.42182432
64
Lattice="9.860000170089029 0.0 0.0 4.930000085044514 8.53900664730135 0.0 0.0 0.0 29.999997077512198" Properties=species:S:1:pos:R:3 energy=-16268.736283126793 pbc="T T T"
C        5.00530879       6.89822078       0.00877836
C        6.24673212       7.58484358       0.08261201
C        9.79968951       1.66731321       3.19697490
C       11.02183456       2.38542886       3.24161901
C        7.47961273       6.86350964       0.10432077
C        8.66521859       7.56786466       0.06411958
C        2.39538647       1.67170485       3.19256946
C        3.65293779       2.37130539       3.29667232
C        9.88324019       6.88398491       0.00087853
C       11.13430166       7.58838332      -0.03690795
C        4.88271744       1.68131244       3.31132428
C        6.11179703       2.36020402       3.37381401
C       12.37919176       6.85618661      -0.07449132
C       13.60404042       7.60036520      -0.09024365
C        7.34791764       1.67155202       3.42147725
C        8.57758094       2.35458480       3.36298181
C        1.33162950       0.48186018       0.11040637
C        2.54150280       1.17660467       0.15142594
C       10.99279193       3.82362524       3.36733401
C       12.25693269       4.47270018       3.34337323
C        3.77394958       0.47474225       0.06977035
C        4.95993702       1.21534362       0.05020515
C        3.65890507       3.76697560       3.29573266
C        4.87294224       4.47826319       3.36072880
C        6.22062875       0.47821494       0.04811779
C        7.45646441       1.16511579       0.03574250
C        6.08771891       3.79247257       3.35561935
C        7.35274510       4.48832828       3.42793555
C        8.69745093       0.44900962      -0.03296001
C        9.95306477       1.17633845       0.08487390
C        8.57499466       3.80016239       3.47174254
C        9.74993890       4.53404713       3.46138165
C        2.49966189       2.59810906       0.10814744
C        3.74478468       3.31395690       0.08595948
C       12.27707075       5.89998253       3.39010470
C       13.52065046       6.66000219       3.36254304
C        4.98351129       2.62844532       0.11654126
C        6.22451556       3.31035899       0.06398351
C        4.86459673       5.93839413       3.35024368
C        6.09724663       6.64972117       3.27013019
C        7.44586491       2.63041141       0.12323324
C        8.70243615       3.32279146       0.10561342
C        7.32601858       5.92196343       3.36776687
C        8.52533970       6.65548434       3.36940264
C        9.92962853       2.58618536       0.05975456
C       11.14566531       3.33132135       0.05906732
C        9.78399929       5.96586311       3.45922823
C       11.04145201       6.62706387       3.44563129
C        3.76647076       4.74734260       0.04726194
C        5.03732126       5.48146496       0.05093577
C       13.45809960       8.08041212       3.39299959
C        9.78560252       0.22787939       3.26601364
C        6.23433810       4.72821321       0.06183009
C        7.48701562       5.43760867       0.08447950
C        6.10250891       8.04028291       3.26324988
C        2.38138231       0.26119732       3.25996551
C        8.71711375       4.75813535       0.11068343
C        9.94433472       5.47218966       0.01480183
C        8.55854818       8.07759414       3.30802710
C        4.88553543       0.24341678       3.35492126
C       11.14560221       4.74609629       0.00540821
C       12.39938898       5.43178634      -0.05950905
C       11.02763717       8.04959371       3.37997552
C        7.28755866       0.25915137       3.46367805
64
Lattice="9.860000170089029 0.0 0.0 4.930000085044514 8.53900664730135 0.0 0.0 0.0 29.999997077512198" Properties=species:S:1:pos:R:3 energy=-16268.654554959865 pbc="T T T"
C        4.93609751       8.50081394      -0.29204039
C        1.24762329       0.69256345      -0.28924212
C        9.84464716       0.02590025       3.57482194
C        1.23518884       0.72307424       3.62105252
C        7.42588165       8.51652289      -0.31472332
C        3.70068090       0.70330099      -0.25996186
C        2.48463130       0.01095150       3.51146257
C        3.68579526       0.76530955       3.50938999
C        9.86453478       8.50967216      -0.14259927
C        6.17751294       0.66663067      -0.13303901
C        4.90198388       0.05378038       3.46221778
C        6.16810847       0.72550078       3.47284193
C       12.34938498       8.48211149      -0.17709349
C        8.64560508       0.68060130      -0.30026461
C        7.38645644       0.03666835       3.51892757
C        8.59645594       0.72288295       3.60585136
C        1.24255722       2.12488229      -0.16707770
C        2.47217122       2.82757690       0.04401504
C       11.09924443       2.15601525       3.72426602
C        2.45129267       2.88706129       3.69917725
C        3.70363003       2.10633958      -0.09078891
C        4.91142877       2.82265084      -0.14699387
C        3.67814291       2.17799713       3.59434474
C        4.93962739       2.88150716       3.56493335
C        6.16369021       2.09845947      -0.23583740
C        7.39875284       2.82196853      -0.32755512
C        6.16317847       2.16118090       3.53876195
C        7.39241188       2.85599835       3.53040264
C        8.64878888       2.09842200      -0.27589759
C        9.85829833       2.85166587      -0.17358234
C        8.62786398       2.15311641       3.61485157
C        9.83802519       2.84915157       3.71813606
C        2.45802113       4.24976558       0.15523091
C        3.70669057       4.94380803       0.05543193
C       12.29530682       4.30501510       3.64988514
C        3.68624882       5.01425477       3.56965925
C        4.95392045       4.24522899      -0.10671281
C        6.16520963       4.97531566      -0.23085218
C        4.93568142       4.28825704       3.50301353
C        6.16628832       5.02690614       3.42217435
C        7.40260416       4.25364844      -0.28997965
C        8.65640178       4.97132039      -0.19156206
C        7.38307742       4.29334283       3.45178294
C        8.63719253       4.97936911       3.49889402
C        9.87038176       4.26113416      -0.04430098
C       11.12378893       4.97280136       0.13892937
C        9.85378738       4.27424993       3.67090173
C       11.05000556       4.99960971       3.61608308
C        3.70243401       6.37093164       0.07213280
C        4.93984135       7.08410052      -0.22728286
C       13.55023834       6.43437383       3.54268623
C        4.93783681       7.13668390       3.47755304
C        6.16002722       6.38869344      -0.35495015
C        7.38174632       7.10225278      -0.33911893
C        6.17402349       6.41684966       3.44568453
C        7.39889384       7.13675884       3.44448556
C        8.59032598       6.39307720      -0.18189827
C        9.86509483       7.08849019      -0.07733987
C        8.62613750       6.40099379       3.42473894
C        9.84624843       7.14497024       3.48276306
C       11.07395649       6.36422388       0.07282793
C       12.33366715       7.09299029       0.04755675
C       11.08280978       6.42476724       3.54513841
C       12.31242477       7.13853265       3.57768923
64
Lattice="9.860000170089029 0.0 0.0 4.930000085044514 8.53900664730135 0.0 0.0 0.0 29.999997077512198" Properties=species:S:1:pos:R:3 energy=-16268.5794929017 pbc="T T T"
C        4.94529886       7.89248052       0.00648196
C        1.29367738       0.07723831       0.01228260
C        9.81838308       0.60465859       3.44578511
C        1.18820101       1.36078848       3.48751558
C        7.44582843       7.91179527       0.06452976
C        3.75082985       0.07486402       0.01505228
C        2.40799347       0.62662865       3.48631365
C        3.63893856       1.33063069       3.46745147
C        9.93566483       7.92094338       0.02576024
C        6.21767765       0.12399640       0.01886514
C        4.87858807       0.59779012       3.40064208
C        6.12804039       1.30718755       3.43456245
C       12.37839704       7.93452750      -0.03131437
C        8.67807110       0.07211013      -0.06456525
C        7.34614580       0.61927309       3.42496276
C        8.61605170       1.37612769       3.50353611
C        1.26440304       1.48584582      -0.15931690
C        2.49570014       2.22087827      -0.10212692
C       11.04353740       2.77147843       3.35097825
C        2.43324493       3.46333098       3.25586474
C        3.69325928       1.49873580      -0.06245226
C        4.98867004       2.21499086      -0.01325776
C        3.65963273       2.78289532       3.34805476
C        4.90072377       3.44573088       3.37492917
C        6.16399488       1.52260292       0.02578291
C        7.42336735       2.23337976       0.03951001
C        6.16459536       2.72954779       3.46042326
C        7.32342244       3.51328667       3.50760632
C        8.65800009       1.52070684      -0.06491233
C        9.87701064       2.20811056      -0.11791969
C        8.58983002       2.78014833       3.54158290
C        9.82013619       3.48395514       3.38926956
C        2.53024662       3.63014246      -0.12886922
C        3.73010215       4.37841689      -0.03910377
C       12.30204909       4.91038263       3.21241369
C        3.62523415       5.57456900       3.28783480
C        4.97378637       3.66785992       0.02776675
C        6.19335205       4.36372943       0.06888393
C        4.87243938       4.85297771       3.39168131
C        6.11468305       5.58715529       3.49503482
C        7.42911671       3.60048358       0.09376269
C        8.69564261       4.33648526       0.01650268
C        7.33630453       4.94147515       3.53372645
C        8.60343287       5.62393309       3.45001012
C        9.92265061       3.65413184      -0.12046948
C       11.13144423       4.35383196      -0.13060458
C        9.80380310       4.90605310       3.35659549
C       11.07293992       5.61839177       3.24949912
C        3.74224672       5.78989662      -0.01102151
C        4.97643280       6.50369161       0.05781312
C       13.51986264       7.02756821       3.35190410
C        4.87263953       7.73753259       3.44588272
C        6.21422468       5.79117940       0.08808135
C        7.45327076       6.45786134       0.10162209
C        6.10380648       7.06210089       3.57415048
C        7.33935817       7.72845942       3.58675451
C        8.67230399       5.73868673       0.03915702
C        9.89064801       6.48272235      -0.00496747
C        8.58939815       7.06230006       3.48968380
C        9.78546153       7.75067301       3.38805382
C       11.14869135       5.77231229      -0.08660038
C       12.37611938       6.49262474      -0.07006713
C       11.06802964       7.01297738       3.25474070
C       12.30297199       7.74572231       3.35827563
64
Lattice="9.860000170089029 0.0 0.0 4.930000085044514 8.53900664730135 0.0 0.0 0.0 29.999997077512198" Properties=species:S:1:pos:R:3 energy=-16268.793830441677 pbc="T T T"
C        4.98281025       7.93257917      -0.05988373
C        1.25673787       0.07726592      -0.05400519
C        9.85352215       0.65883732       3.45926570
C        1.18717064       1.36766386       3.48994016
C        7.42100686       7.87192242       0.00498916
C        3.75262042       0.05365516      -0.00037074
C        2.41445768       0.67936782       3.47030791
C        3.65373251       1.37164533       3.43156304
C        9.91578411       7.89498792      -0.02958197
C        6.20885000       0.07501291      -0.01945674
C        4.87131829       0.62942593       3.39096745
C        6.10429061       1.34877999       3.44178490
C       12.36072694       7.88647479      -0.01248966
C        8.64635937       0.06890563      -0.12538864
C        7.38037775       0.65481050       3.44963051
C        8.61245970       1.34961415       3.47606418
C        1.27020072       1.48429879      -0.10989167
C        2.50197011       2.17085849      -0.06185080
C       11.03932521       2.78714991       3.44284387
C        2.41122262       3.49671891       3.31791372
C        3.76832445       1.47948119      -0.08340476
C        4.94778851       2.22626183      -0.03484524
C        3.65828093       2.77696749       3.41441453
C        4.89906631       3.48883189       3.41183417
C        6.21676265       1.51054118       0.00008085
C        7.42537977       2.17469403      -0.00111418
C        6.10345251       2.77905387       3.44361886
C        7.36414424       3.49928842       3.48687173
C        8.64147670       1.48024830      -0.14422419
C        9.90680855       2.18375438      -0.09127106
C        8.57766968       2.81220713       3.57915541
C        9.80951796       3.51002892       3.48429432
C        2.49517066       3.62742307      -0.06134596
C        3.73408461       4.34197531       0.01601658
C       12.30380318       4.90259323       3.29269776
C        3.68939810       5.65348647       3.33520126
C        4.95467079       3.62327891       0.02264941
C        6.22308685       4.31658778      -0.01111715
C        4.87339284       4.92105706       3.42417692
C        6.07928170       5.62220661       3.42829642
C        7.44256082       3.60869992       0.04999513
C        8.65799713       4.27987604      -0.00211398
C        7.35007304       4.91776678       3.49882402
C        8.56009719       5.66966673       3.45744456
C        9.88863953       3.58998071      -0.12090628
C       11.13119478       4.33588479      -0.12731922
C        9.83066273       4.93853293       3.41229759
C       11.07206928       5.60964102       3.35260909
C        3.76623708       5.76423498      -0.01837017
C        4.96536593       6.49458688       0.05125129
C       13.48982316       7.04176759       3.39476355
C        4.86098008       7.76210864       3.47177015
C        6.20237296       5.75121189       0.03353780
C        7.44059474       6.45724805       0.02446463
C        6.09401353       7.01832347       3.50234207
C        7.36695829       7.79014456       3.50926576
C        8.69412811       5.73475752      -0.00155591
C        9.91858928       6.48577204      -0.00418951
C        8.59722600       7.06091670       3.49721782
C        9.85505637       7.72395241       3.37105419
C       11.15546319       5.78046355      -0.05522487
C       12.40487312       6.46495364      -0.05796102
C       11.03899687       7.03922470       3.33582540
C       12.25952488       7.75333718       3.41064111
64
Lattice="9.860000170089029 0.0 0.0 4.930000085044514 8.53900664730135 0.0 0.0 0.0 29.999997077512198" Properties=species:S:1:pos:R:3 energy=-16267.62089013483 pbc="T T T"
C        4.93628978       7.81696968      -0.17369475
C        1.27260459       0.02001974      -0.17914437
C        9.83164281       0.69528876       3.49181060
C        1.18907461       1.41802973       3.53852728
C        7.42236360       7.81307202      -0.24307365
C        8.69650536       8.52651403      -0.12855370
C        2.43231217       0.71950097       3.31875084
C        3.61950549       1.48218579       3.42755298
C        9.95502296       7.80675965      -0.16277578
C       11.16834233       8.52968599      -0.17224434
C        4.84333561       0.77152825       3.45929331
C        6.13061977       1.41458464       3.46069441
C       12.41030302       7.82608427      -0.10691198
C       13.59996824       8.49554771      -0.11291771
C        7.31153917       0.73901194       3.48215766
C        8.59197555       1.43148961       3.51337343
C        1.26641645       1.39629040      -0.09862169
C        2.50520617       2.07838549       0.05796300
C       11.05361629       2.87033873       3.67973826
C        2.41720468       3.59411007       3.70696172
C        3.74017316       1.39825451      -0.01629562
C        5.01833878       2.11987834      -0.05591212
C        3.61301761       2.93382530       3.56231848
C        4.88370443       3.57467996       3.44664687
C        6.19527573       1.41650833      -0.20228283
C        7.45654428       2.10021750      -0.24275518
C        6.14398303       2.84926989       3.42072197
C        7.33602056       3.61146959       3.39920252
C        8.66352760       1.39928192      -0.12836833
C        9.87878446       2.08649041      -0.00787518
C        8.61262239       2.89550540       3.50393939
C        9.84266432       3.57477954       3.57686691
C        2.52008293       3.50862091       0.10710031
C        3.72959141       4.21528910       0.01884443
C       12.30159356       5.01254702       3.81251598
C        3.62092632       5.72757451       3.62927182
C        5.01447071       3.55217648      -0.01552161
C        6.20946132       4.23148119      -0.18097044
C        4.87501678       4.97753712       3.49354990
C        6.11756710       5.72437494       3.32495278
C        7.46156302       3.47362777      -0.22966011
C        8.70155467       4.23954371      -0.16282410
C        7.33358021       5.02587478       3.41474484
C        8.60858965       5.71932564       3.42019545
C        9.91803515       3.57166871      -0.00070893
C       11.11039116       4.25249088       0.14481481
C        9.80271653       4.98820761       3.65465442
C       11.07476994       5.72661415       3.80316377
C        3.73561882       5.63982150      -0.06757847
C        4.93047238       6.39312058      -0.17771270
C       13.50484093       7.13262257       3.52603269
C        4.86580951       7.83311938       3.40465214
C        6.20043054       5.65860776      -0.20962558
C        7.38413145       6.36770544      -0.24863568
C        6.12207509       7.15458966       3.31067944
C        7.36536294       7.80888744       3.20922004
C        8.65126867       5.67546343      -0.19573284
C        9.86556121       6.41267690      -0.09457318
C        8.60964665       7.13924750       3.35275798
C        9.81369958       7.88062091       3.48692891
C       11.12435687       5.70858711       0.07480881
C       12.39038680       6.36289869      -0.03633016
C       11.04916253       7.09744208       3.62639763
C       12.29876867       7.86209989       3.58949658
64
Lattice="9.860000170089029 0.0 0.0 4.930000085044514 8.53900664730135 0.0 0.0 0.0 29.999997077512198" Properties=species:S:1:pos:R:3 energy=-16267.547648790356 pbc="T T T"
C        4.96784474       7.73508139      -0.19455259
C        6.23675873       8.45117574      -0.21221777
C        9.81022492       0.80654900       3.41524967
C        1.17128224       1.50293616       3.46530988
C        7.46734393       7.75816365      -0.26263589
C        8.64075692       8.48036232      -0.22451319
C        2.40661504       0.81988268       3.38473494
C        3.66847518       1.43435394       3.45021718
C        9.86882487       7.74862016      -0.20803812
C       11.10850692       8.45678115      -0.20173363
C        4.89005032       0.74231406       3.43822150
C        6.14714513       1.49503436       3.49270885
C       12.36407835       7.75990789      -0.13888599
C       13.60814908       8.45761235      -0.17764467
C        7.35574451       0.78016956       3.55905876
C        8.59802072       1.50845973       3.47036116
C        1.28631886       1.33097480       0.01627492
C        2.52683901       2.07381735       0.05949623
C       11.01841708       2.92153580       3.71247247
C        2.44304478       3.57265767       3.84225473
C        3.71641154       1.32720631      -0.08625232
C        4.96757852       2.04246255      -0.12254501
C        3.68327307       2.88470968       3.63460214
C        4.86398048       3.65631977       3.55319600
C        6.18698249       1.35787880      -0.22173661
C        7.46928833       2.10551232      -0.21586005
C        6.10930245       2.96923848       3.38883966
C        7.35423593       3.62175357       3.39755886
C        8.69394472       1.37589302      -0.17366320
C        9.90882590       2.04273765      -0.03078588
C        8.59348906       2.90761151       3.50502497
C        9.78431185       3.64075773       3.70212342
C        2.51890368       3.50118943       0.19960387
C        3.74715502       4.21643779       0.05937594
C       12.28203230       5.05132049       3.95014285
C        3.66848307       5.74749862       3.75742619
C        4.98009086       3.49645959      -0.13088854
C        6.15358075       4.20352908      -0.31923328
C        4.89902785       5.02211023       3.52512655
C        6.13439911       5.72244140       3.33485912
C        7.41499128       3.51339217      -0.29062449
C        8.68046413       4.20516584      -0.18164487
C        7.35233098       5.03108974       3.28720968
C        8.59521752       5.76652743       3.44329447
C        9.90570719       3.50165088       0.04490934
C       11.10242823       4.19149593       0.13108574
C        9.79719789       5.06488390       3.67853928
C       11.04130904       5.83261309       3.90549480
C        3.73943169       5.64879607      -0.09388791
C        4.99616857       6.32001460      -0.21304897
C       13.50688294       7.17811562       3.63507443
C        4.86902683       7.91027585       3.39157778
C        6.23693621       5.60255365      -0.37363583
C        7.46771270       6.33799924      -0.39075575
C        6.12438529       7.17641871       3.23216130
C        7.30745220       7.92792229       3.25100672
C        8.71993864       5.61606876      -0.25201865
C        9.93790009       6.31839460      -0.11127405
C        8.56947405       7.21736532       3.35151167
C        9.82120403       7.89451957       3.49375006
C       11.15563180       5.61280707       0.03317496
C       12.33324021       6.32111497      -0.03509273
C       11.02963184       7.19172735       3.79208409
C       12.27560654       7.90865979       3.67805614
64
Lattice="9.860000170089029 0.0 0.0 4.930000085044514 8.53900664730135 0.0 0.0 0.0 29.999997077512198" Properties=species:S:1:pos:R:3 energy=-16267.530263301145 pbc="T T T"
C        4.98849158       7.73638094      -0.23323239
C        6.19927002       8.45302745      -0.11989169
C        9.83682720       0.78543677       3.37894022
C        1.17919587       1.57217308       3.43654037
C        7.41500508       7.71120343      -0.32387340
C        8.68760474       8.42481799      -0.25152072
C        2.40780021       0.80920233       3.41762987
C        3.65964457       1.53250137       3.50123775
C        9.92009194       7.71274061      -0.18611046
C       11.12159311       8.45449363      -0.18468273
C        4.90556799       0.78956614       3.42169318
C        6.09757003       1.50506691       3.47291983
C       12.35360407       7.71999362      -0.19513433
C       13.58935296       8.42797812      -0.19150092
C        7.35696025       0.83209922       3.54661347
C        8.58993552       1.50769558       3.49646846
C        1.29714711       1.31556658      -0.00934038
C        2.49674826       2.02566999       0.09348956
C       11.03964467       2.94184838       3.70952532
C        2.42417077       3.63564631       3.87222321
C        3.72950858       1.34383816      -0.12720879
C        4.95714861       2.06646968      -0.18238141
C        3.65279778       2.92189470       3.66182560
C        4.92165359       3.61322467       3.55875704
C        6.21250510       1.35035858      -0.19556423
C        7.41635492       2.04642233      -0.21518070
C        6.13805717       2.88907273       3.47962463
C        7.33748182       3.67934879       3.36242768
C        8.67321111       1.32446424      -0.16779452
C        9.92906553       2.04425609      -0.03927238
C        8.55996901       2.96894465       3.49912672
C        9.79648994       3.64649625       3.70928375
C        2.53115374       3.47015212       0.14441153
C        3.74962200       4.20480299       0.00834452
C       12.30443521       5.06077327       3.92698171
C        3.64521938       5.80616759       3.79266090
C        4.92948441       3.47424994      -0.19841771
C        6.20844672       4.18190511      -0.34155336
C        4.87293040       5.09434164       3.58055257
C        6.10696070       5.78909894       3.29331203
C        7.42211316       3.45947079      -0.29175938
C        8.66375537       4.15912752      -0.17673360
C        7.36952090       5.09382004       3.31937202
C        8.57180692       5.81443717       3.41356657
C        9.88361783       3.45688451       0.00366299
C       11.15967046       4.18069233       0.14237742
C        9.78678277       5.08712313       3.75385982
C       11.04617890       5.74283779       3.85579941
C        3.76957765       5.60067138       0.00209624
C        4.98109461       6.31451370      -0.29516897
C       13.51250314       7.23673924       3.68412300
C        4.87447941       7.90629635       3.39226700
C        6.23226454       5.61976724      -0.40384194
C        7.48676616       6.27851977      -0.38668751
C        6.07951144       7.20358893       3.28417576
C        7.36264257       7.92805343       3.31645247
C        8.69045921       5.58124619      -0.25385556
C        9.89591621       6.30985781      -0.16934254
C        8.58162847       7.20886600       3.37147226
C        9.79912749       7.88913798       3.56446500
C       11.11692736       5.58712966      -0.02939167
C       12.41812496       6.31203095      -0.03373895
C       11.04930649       7.23591888       3.78314994
C       12.28750658       7.94291344       3.75175077
64
Lattice="9.860000170089029 0.0 0.0 4.930000085044514 8.53900664730135 0.0 0.0 0.0 29.999997077512198" Properties=species:S:1:pos:R:3 energy=-16268.773659323102 pbc="T T T"
C        4.94809516       7.62203255      -0.23035623
C        6.21410045       8.33965322      -0.21450332
C        9.81711311       0.87969837       3.56975292
C        1.19911209       1.62158943       3.56445612
C        7.44127212       7.60619542      -0.22777586
C        8.65958065       8.34360412      -0.19755891
C        2.44056992       0.90673745       3.58134335
C        3.64497288       1.63169495       3.67710958
C        9.90072296       7.62540467      -0.23286067
C       11.14876431       8.33865835      -0.23145167
C        4.87085487       0.91777276       3.66175362
C        6.12654562       1.61029973       3.63491273
C       12.38181156       7.61699803      -0.13077713
C       13.58918041       8.31577723      -0.15272844
C        7.33311975       0.95100195       3.56139952
C        8.58500946       1.62029777       3.51610663
C        1.28732655       1.22860039      -0.15090533
C        2.54622672       1.94392566      -0.14300550
C       11.02352850       3.07254367       3.57341492
C        2.43240091       3.75504598       3.67309952
C        3.72943660       1.19586322      -0.21625643
C        4.98688933       1.91240619      -0.25978142
C        3.65395042       3.05461721       3.68774852
C        4.86804182       3.77450371       3.62839625
C        6.20581903       1.22832727      -0.26023498
C        7.47018460       1.94474897      -0.18832107
C        6.12555173       3.03880768       3.56915540
C        7.33294622       3.77258397       3.49809536
C        8.69646198       1.22345544      -0.14125633
C        9.90090339       1.94119739      -0.06995572
C        8.58264799       3.02534188       3.51071715
C        9.78218702       3.77010911       3.52976864
C        2.49692870       3.35223047      -0.16814160
C        3.74010710       4.05117630      -0.25425785
C       12.27425769       5.18637784       3.72608322
C        3.63102690       5.89840197       3.70891597
C        4.98635196       3.36029890      -0.27417702
C        6.17416350       4.08412940      -0.30621808
C        4.88958986       5.17087792       3.66058225
C        6.13929755       5.89187071       3.57113134
C        7.42830622       3.35476744      -0.24344045
C        8.68762150       4.07154213      -0.22532861
C        7.34638638       5.18793966       3.57807377
C        8.61592155       5.89483068       3.59084740
C        9.92354393       3.39855275      -0.12789308
C       11.12362821       4.06751530      -0.13671580
C        9.81339688       5.16965232       3.59270305
C       11.05217082       5.88732722       3.69209678
C        3.75162358       5.48020979      -0.25670510
C        4.99482367       6.19763129      -0.25828172
C       13.49562775       7.35423100       3.66400466
C        4.90413139       8.00249249       3.61803043
C        6.24019494       5.48941607      -0.28421746
C        7.42964422       6.19624201      -0.28156808
C        6.13879765       7.31158551       3.55146262
C        7.33165357       8.02995752       3.53895126
C        8.66415569       5.48943086      -0.29234210
C        9.90500713       6.21684744      -0.21280740
C        8.56482703       7.33582829       3.59673678
C        9.80372422       8.03174612       3.65671023
C       11.12538724       5.47807707      -0.15783198
C       12.35748793       6.17657723      -0.16202051
C       11.05932228       7.29564978       3.68598556
C       12.26557103       8.07612500       3.62013357
64
Lattice="9.860000170089029 0.0 0.0 4.930000085044514 8.53900664730135 0.0 0.0 0.0 29.999997077512198" Properties=species:S:1:pos:R:3 energy=-16268.530974596097 pbc="T T T"
C        4.97960772       7.61361408      -0.18216350
C        6.18979456       8.32460883      -0.15774028
C        9.85195342       0.91602853       3.59449264
C        1.16620335       1.65441436       3.57370579
C        7.41464125       7.60936245      -0.25392163
C        8.67272698       8.29464133      -0.22808843
C        2.38841841       0.94378245       3.64781552
C        3.64252465       1.64672356       3.67229692
C        9.92300754       7.63602980      -0.18510178
C       11.14090885       8.33965223      -0.21992928
C        4.88210612       0.91763373       3.65942370
C        6.08994037       1.66087167       3.63704840
C       12.35647531       7.58364559      -0.18334868
C       13.59426719       8.32281530      -0.11433360
C        7.36773821       0.93630069       3.57048946
C        8.62369912       1.63129167       3.57311813
C        1.29531808       1.19630002      -0.20963642
C        2.50066366       1.88858739      -0.18340488
C       11.02506765       3.05127072       3.55737960
C        2.39454147       3.77119272       3.64461201
C        3.77709886       1.21200404      -0.23111840
C        4.98272742       1.93668151      -0.24333494
C        3.64317048       3.06705264       3.65032489
C        4.90726687       3.76403239       3.61015920
C        6.24272698       1.22775440      -0.22955264
C        7.43519146       1.91509797      -0.22074864
C        6.11574300       3.07190277       3.64438523
C        7.36290879       3.76849108       3.52014035
C        8.66563173       1.19631481      -0.12729556
C        9.92587089       1.92142415      -0.14902108
C        8.58371879       3.08850011       3.49800958
C        9.81225016       3.78781767       3.50661243
C        2.49850038       3.33963234      -0.23720301
C        3.72178327       4.05920135      -0.30596961
C       12.31068744       5.18881424       3.65050139
C        3.66370787       5.92514821       3.66148937
C        4.94814742       3.33583822      -0.25918785
C        6.23810462       4.03141193      -0.26076249
C        4.86829719       5.20250387       3.67861028
C        6.10171912       5.88086695       3.63678908
C        7.44715854       3.32896087      -0.24563331
C        8.66329195       4.03796883      -0.22214679
C        7.37212296       5.19660759       3.63454396
C        8.55606050       5.95664894       3.57494815
C        9.87751449       3.31303795      -0.15008301
C       11.13183765       4.06539639      -0.16676810
C        9.81616064       5.23851752       3.60160072
C       11.06752777       5.90017875       3.61679005
C        3.76282059       5.46302085      -0.23304603
C        4.96939079       6.19601326      -0.28483667
C       13.48213828       7.32553938       3.60805704
C        4.86129560       8.03588140       3.61587011
C        6.17713037       5.47318651      -0.25535626
C        7.44585308       6.16460029      -0.24568360
C        6.09230184       7.30723824       3.64059603
C        7.36605807       8.05641485       3.61678216
C        8.68520974       5.47298241      -0.23309731
C        9.90650190       6.19699827      -0.20645657
C        8.60417237       7.35334064       3.60306098
C        9.82754992       8.03571378       3.69277219
C       11.14700627       5.48768860      -0.22084231
C       12.42491159       6.17922760      -0.22250668
C       11.03369909       7.34118622       3.65681672
C       12.25744048       8.03343218       3.61907757
64
Lattice="9.860000170089029 0.0 0.0 4.930000085044514 8.53900664730135 0.0 0.0 0.0 29.999997077512198" Properties=species:S:1:pos:R:3 energy=-16268.389933911812 pbc="T T T"
C        4.96869960       7.59097157      -0.10744344
C        6.21412608       8.27680755      -0.15183907
C        9.77063504       0.97297693       3.60544907
C        1.18454591       1.65672850       3.60997284
C        7.45498935       7.58038785      -0.23805196
C        8.68471674       8.32307264      -0.26450239
C        2.40640896       0.96686964       3.71361130
C        3.64033277       1.64114378       3.64214306
C        9.89879631       7.57583450      -0.16757070
C       11.15157342       8.30533352      -0.16854684
C        4.88747390       0.97239815       3.68082385
C        6.15039498       1.66283381       3.62048064
C       12.38670902       7.62915936      -0.24955660
C       13.60839262       8.30780148      -0.10950122
C        7.36039547       0.91387313       3.63005668
C        8.56917036       1.68583818       3.60476183
C        1.25363099       1.16439207      -0.20721481
C        2.52162109       1.90411492      -0.29376885
C       11.05632878       3.10524338       3.55131176
C        2.41500393       3.78887860       3.57943051
C        3.74178330       1.18141437      -0.23536215
C        4.98317704       1.90883983      -0.21949544
C        3.64893463       3.06640681       3.59678213
C        4.84524845       3.79638403       3.65876407
C        6.18543742       1.17370385      -0.18657980
C        7.46388012       1.87797409      -0.23456447
C        6.12735315       3.10237412       3.67246454
C        7.37358421       3.79958558       3.63208389
C        8.67208707       1.18198724      -0.13241783
C        9.88698995       1.83675436      -0.25748404
C        8.61421478       3.07648767       3.49905770
C        9.84535511       3.85430266       3.51623875
C        2.49835445       3.30462244      -0.30204434
C        3.74428872       4.01911651      -0.30822361
C       12.25510267       5.20762417       3.53458032
C        3.66843180       5.89838324       3.58770995
C        4.98678876       3.33698691      -0.26258758
C        6.17935578       4.01774498      -0.20230255
C        4.89481763       5.20140842       3.65031602
C        6.10549846       5.93229572       3.75152202
C        7.44863360       3.32313459      -0.24133632
C        8.67064455       4.03301122      -0.19668531
C        7.32988469       5.21626744       3.62532190
C        8.57778110       5.93377177       3.58839620
C        9.91139641       3.28903477      -0.20340096
C       11.12782167       4.01281301      -0.24796816
C        9.81048325       5.25018190       3.55586905
C       11.04881447       5.96164599       3.54105144
C        3.74246068       5.46950676      -0.25533654
C        4.97064596       6.16919209      -0.24891077
C       13.52402652       7.32752223       3.55906665
C        4.86207060       8.06361561       3.61448083
C        6.21093933       5.42091470      -0.23775517
C        7.42988777       6.17804637      -0.20353604
C        6.10623303       7.35476640       3.73581307
C        7.30617434       8.06809698       3.73750603
C        8.69072050       5.44535962      -0.14345018
C        9.94577231       6.16501046      -0.19570227
C        8.56065921       7.37862464       3.64964850
C        9.82493801       8.09471110       3.67971755
C       11.17818261       5.47352471      -0.27801947
C       12.34995094       6.19097381      -0.28826006
C       11.05511994       7.35120496       3.60901642
C       12.29214078       8.04904746       3.60597363
64
Lattice="9.860000170089029 0.0 0.0 4.930000085044514 8.53900664730135 0.0 0.0 0.0 29.999997077512198" Properties=species:S:1:pos:R:3 energy=-16267.529509409756 pbc="T T T"
C        5.02714278       7.52423022      -0.08721663
C        6.21993757       8.23201949      -0.15756280
C        9.82421231       1.03790602       3.64855897
C        1.18789634       1.70685083       3.71018298
C        7.46184698       7.51881609      -0.14251053
C        8.69563472       8.23350046      -0.19881310
C        2.39821728       1.04111840       3.76035559
C        3.64481217       1.70985122       3.65006755
C        9.90532955       7.52777785      -0.20086694
C       11.15195303       8.26231828      -0.16379827
C        4.85600473       0.97908125       3.65073803
C        6.08910424       1.70495771       3.70567302
C       12.34477148       7.50833196      -0.21716453
C       13.62237608       8.23915221      -0.17909113
C        7.36744044       0.99090044       3.67389029
C        8.60708009       1.73924093       3.61306395
C        1.26190353       1.13620430      -0.32848295
C        2.50810895       1.83640728      -0.41228309
C       11.05253268       3.11950981       3.53257677
C        2.39549099       3.86069588       3.38031865
C        3.73247447       1.10671994      -0.31246735
C        4.94457415       1.86142013      -0.18734395
C        3.68901159       3.15089222       3.53935158
C        4.92708152       3.81265796       3.65984275
C        6.18132580       1.12595582      -0.11306265
C        7.41172565       1.82144966      -0.15712798
C        6.13304040       3.12005901       3.72381739
C        7.34182219       3.87460933       3.72605364
C        8.66387073       1.15522917      -0.25379246
C        9.93298685       1.85544990      -0.29609482
C        8.52439610       3.15129254       3.69022634
C        9.80459486       3.84125098       3.51115888
C        2.52958600       3.26324101      -0.45543637
C        3.73682766       3.98473370      -0.31333207
C       12.26885244       5.26583859       3.31853194
C        3.68564440       6.00211734       3.41114988
C        4.96994295       3.28143468      -0.20274428
C        6.22928879       3.98498316      -0.18794146
C        4.87683496       5.26574689       3.66405199
C        6.05936352       5.99128219       3.80452051
C        7.47517672       3.29040629      -0.14319087
C        8.65958065       3.95576108      -0.14944408
C        7.34700460       5.29936555       3.77184052
C        8.56926403       6.00498069       3.64639470
C        9.91418087       3.26702725      -0.38885277
C       11.16438551       3.98202121      -0.46404020
C        9.78655106       5.26194586       3.42694758
C       11.03841809       5.99972038       3.37386824
C        3.77176756       5.42050354      -0.34116685
C        4.96041819       6.10335095      -0.09231524
C       13.52143137       7.39750851       3.51530304
C        4.86652436       8.12092193       3.68960911
C        6.21948795       5.41296853      -0.10970926
C        7.47526546       6.13098853      -0.07270666
C        6.11065623       7.40940263       3.89596708
C        7.36772047       8.11917277       3.94281095
C        8.69072050       5.34919010      -0.07624048
C        9.89398266       6.09843574      -0.16069237
C        8.60170540       7.39999718       3.80311644
C        9.81321447       8.10973576       3.61813101
C       11.13267180       5.41911131      -0.34072118
C       12.34392944       6.08493937      -0.38603971
C       11.01254151       7.42578206       3.48695061
C       12.27836931       8.13056304       3.54718042
64
Lattice="9.860000170089029 0.0 0.0 4.930000085044514 8.53900664730135 0.0 0.0 0.0 29.999997077512198" Properties=species:S:1:pos:R:3 energy=-16267.610226401663 pbc="T T T"
C        4.94404664       7.54633141      -0.13922024
C        6.22298332       8.25249476      -0.16415125
C        9.83237442       1.01003968       3.70253162
C        1.20461298       1.75041428       3.70247443
C        7.44196824       7.52071612      -0.09454754
C        8.66762443       8.21657084      -0.17058195
C        2.44383752       1.01061354       3.79808193
C        3.63287269       1.76451802       3.66875422
C        9.91456640       7.50450529      -0.17113312
C       11.13607252       8.20512831      -0.20490658
C        4.85664070       1.01310417       3.64743197
C        6.12038509       1.70378930       3.73117985
C       12.40446097       7.49121007      -0.19168629
C       13.58735237       8.22516481      -0.21367606
C        7.34363051       1.03714384       3.62599337
C        8.58488917       1.73364045       3.67631980
C        1.28933405       1.09897886      -0.38858852
C        2.53714271       1.81191800      -0.41024404
C       11.01189962       3.16648187       3.49245150
C        2.43094853       3.84817664       3.36235866
C        3.76188291       1.09975287      -0.31270103
C        4.97632138       1.83433471      -0.19290104
C        3.64121425       3.16592971       3.52697037
C        4.86064189       3.91384523       3.59209469
C        6.19237196       1.12784795      -0.11704806
C        7.46818598       1.83636982      -0.13012637
C        6.10531309       3.16085674       3.76429368
C        7.32788508       3.87925635       3.73591265
C        8.67850297       1.09216658      -0.24747023
C        9.88203628       1.81715761      -0.32823349
C        8.60738476       3.15686146       3.71564838
C        9.77167133       3.87467934       3.51647046
C        2.50168023       3.24032932      -0.50482215
C        3.77235817       3.95928011      -0.37185610
C       12.30258449       5.31986252       3.26037569
C        3.65945624       6.00866636       3.40746914
C        4.98993410       3.27030372      -0.18050012
C        6.20751692       3.95562402      -0.14050895
C        4.87487381       5.29962684       3.64186698
C        6.12065920       6.00599824       3.80531522
C        7.41965604       3.20236734      -0.10076624
C        8.70997806       3.93520199      -0.19227888
C        7.30801323       5.30023225       3.85614056
C        8.58051035       5.99206212       3.69200311
C        9.91548929       3.25414811      -0.38883995
C       11.10727737       3.97836217      -0.50386474
C        9.79865519       5.29899975       3.43659756
C       11.03670738       5.98877085       3.29720082
C        3.75188388       5.36269042      -0.30538984
C        5.00323031       6.11031408      -0.10316124
C       13.48689869       7.47846306       3.51068165
C        4.89017752       8.15441438       3.74468214
C        6.20758397       5.35742222      -0.02885923
C        7.42207766       6.05637002      -0.00919938
C        6.11466234       7.43345610       3.89778625
C        7.36026433       8.15919254       3.93298645
C        8.67079541       5.37812329      -0.10132432
C        9.92919371       6.09139767      -0.18803711
C        8.59825539       7.43836539       3.81118784
C        9.81845210       8.12154114       3.63518092
C       11.14216205       5.37770325      -0.37980228
C       12.40516793       6.07981217      -0.34983872
C       11.05715505       7.39539650       3.43356561
C       12.23564002       8.14454058       3.50426181
64
Lattice="9.860000170089029 0.0 0.0 4.930000085044514 8.53900664730135 0.0 0.0 0.0 29.999997077512198" Properties=species:S:1:pos:R:3 energy=-16267.214302535156 pbc="T T T"
C        4.98008198       7.49994603      -0.19269596
C        6.17915956       8.21476547      -0.19662911
C        9.81667336       1.05103263       3.77570663
C        1.18089278       1.77671681       3.67730777
C        7.40628588       7.47938004      -0.04370839
C        8.67061004       8.20678775      -0.15469847
C        2.42741964       1.06354695       3.81575795
C        3.68255329       1.74248782       3.68922358
C        9.91211323       7.49317221      -0.13976945
C       11.15350697       8.20247202      -0.20216747
C        4.92693757       1.06348088       3.69098951
C        6.09425806       1.80767722       3.69434092
C       12.35632149       7.50419470      -0.22205312
C       13.59636047       8.21163196      -0.22655322
C        7.31851118       1.04426572       3.60748911
C        8.57069176       1.71964122       3.74328202
C        1.29967620       1.10170022      -0.38617578
C        2.51459387       1.81342560      -0.43261934
C       11.05767960       3.19726183       3.45306770
C        2.39349927       3.91875748       3.36896091
C        3.76423353       1.11074677      -0.26296325
C        5.02127608       1.78588366      -0.20615584
C        3.60705823       3.18352882       3.50621507
C        4.84968348       3.90090891       3.57365057
C        6.26657044       1.05415924      -0.15783297
C        7.43928928       1.76295225      -0.11892343
C        6.05340808       3.19582819       3.75153681
C        7.34460665       3.84559924       3.80573526
C        8.67484787       1.08633242      -0.20384367
C        9.92192393       1.77719700      -0.40560097
C        8.56402738       3.17438761       3.69149927
C        9.83107290       3.90734848       3.52595184
C        2.52520027       3.24160324      -0.52007655
C        3.73397023       3.91796967      -0.41189855
C       12.28780829       5.28194786       3.23560540
C        3.62075377       6.08752269       3.44183519
C        4.96724229       3.18289285      -0.21400736
C        6.20513968       3.90595131      -0.01990734
C        4.87767405       5.38391604       3.57045889
C        6.12335985       6.05267942       3.83988931
C        7.46514417       3.24268192      -0.09167335
C        8.64786598       3.95965183      -0.22204523
C        7.38942134       5.27240338       3.84973847
C        8.57200117       6.02187876       3.77108032
C        9.87392545       3.19296386      -0.35972830
C       11.15538826       3.91373085      -0.50464368
C        9.79532843       5.32380751       3.48032173
C       11.04989316       5.99787261       3.25111912
C        3.78708704       5.36074800      -0.25150297
C        4.96504055       6.07756705      -0.14823228
C       13.52169759       7.45825301       3.52857065
C        4.88303592       8.14732208       3.77316373
C        6.19152992       5.36012977       0.01945181
C        7.44092111       6.07023811       0.03544374
C        6.11985363       7.46567464       3.85501258
C        7.34826471       8.14514894       3.88223900
C        8.68691355       5.37728815      -0.14507215
C        9.90877167       6.06037910      -0.23820676
C        8.55808575       7.41959787       3.77457569
C        9.81148897       8.15259225       3.64170824
C       11.15540305       5.35426307      -0.40756212
C       12.41417997       6.08699814      -0.27643201
C       11.02668863       7.43267124       3.39946874
C       12.29510075       8.17347376       3.44298289
64
Lattice="9.860000170089029 0.0 0.0 4.930000085044514 8.53900664730135 0.0 0.0 0.0 29.999997077512198" Properties=species:S:1:pos:R:3 energy=-16267.037170167941 pbc="T T T"
C        4.97548920       7.43929519      -0.25119139
C        6.22092948       8.16361475      -0.22751556
C        9.79322529       1.07986919       3.82862130
C        1.18913673       1.78685191       3.67439808
C        7.44162610       7.50705903      -0.03297776
C        8.65423455       8.19300248      -0.10414527
C        2.40472192       1.08956256       3.77048379
C        3.64677036       1.78349063       3.70824648
C        9.88594282       7.47070028      -0.14778365
C       11.13256532       8.15675416      -0.16867009
C        4.88239995       1.04783011       3.73704852
C        6.11254935       1.81215464       3.61701880
C       12.38015508       7.46390970      -0.25657397
C       13.62223606       8.17223239      -0.22792771
C        7.34664866       1.07701176       3.62917223
C        8.56320703       1.78903688       3.76478569
C        1.27960519       1.05395415      -0.36579615
C        2.55001296       1.78463439      -0.43511885
C       11.03748238       3.18535686       3.44965516
C        2.41591598       3.89959753       3.36683510
C        3.73863500       1.04587191      -0.21437317
C        5.00375880       1.70597131      -0.23755205
C        3.67642234       3.18932552       3.50729179
C        4.84281994       3.96857415       3.57834689
C        6.22000856       1.03867904      -0.19322840
C        7.49557805       1.80478725      -0.12914628
C        6.09486741       3.26327552       3.70388639
C        7.33211403       3.90890438       3.85709994
C        8.71050755       1.06981199      -0.20091328
C        9.90609074       1.78240801      -0.42010108
C        8.56853143       3.15800621       3.68828984
C        9.79837024       3.89657643       3.54217943
C        2.52557002       3.18167415      -0.51636426
C        3.78818544       3.91413314      -0.37169538
C       12.24428132       5.39124991       3.25878133
C        3.66271497       6.03411304       3.44407538
C        4.98881203       3.16586562      -0.24953886
C        6.17953621       3.91276556       0.07889479
C        4.87721162       5.36366754       3.53605341
C        6.11913878       6.01449855       3.81663845
C        7.42250263       3.20105793      -0.07085396
C        8.66654871       3.92800320      -0.22916218
C        7.34872024       5.31437444       3.83287491
C        8.61966243       6.01812308       3.80275557
C        9.91394325       3.21454247      -0.38822469
C       11.12083586       3.89695801      -0.45862706
C        9.83369763       5.33093136       3.54193687
C       11.00649733       6.08669051       3.27958297
C        3.72165904       5.32276333      -0.23492634
C        5.00024864       6.02385864      -0.15807848
C       13.52161378       7.49645460       3.56178406
C        4.88023469       8.19791079       3.77711168
C        6.21191646       5.32223188       0.03673639
C        7.45149398       6.07897900       0.04129762
C        6.11945233       7.45898167       3.81170746
C        7.34465299       8.21768206       3.81086739
C        8.66296657       5.34576770      -0.17794244
C        9.92529605       6.05806791      -0.29613229
C        8.58587616       7.48860505       3.73287281
C        9.81442725       8.17840574       3.62395629
C       11.16149949       5.33022439      -0.38804918
C       12.33501896       6.02637097      -0.23258952
C       11.03933606       7.50973799       3.36771362
C       12.26389681       8.20623460       3.40620213
64
Lattice="9.860000170089029 0.0 0.0 4.930000085044514 8.53900664730135 0.0 0.0 0.0 29.999997077512198" Properties=species:S:1:pos:R:3 energy=-16267.158506680995 pbc="T T T"
C        5.00211810       7.40139138      -0.28162428
C        6.22697465       8.15700756      -0.24209061
C        9.81708156       1.10379941       3.81448502
C        1.14917612       1.79881899       3.69727328
C        7.45893631       7.44748195      -0.06360785
C        8.69206244       8.14246702      -0.03453761
C        2.40939753       1.10353812       3.67562171
C        3.61932111       1.83839900       3.71237585
C        9.90446680       7.42721866      -0.18202152
C       11.14044148       8.12307832      -0.16177598
C        4.83381677       1.12225437       3.70130701
C        6.10053789       1.78390081       3.58320097
C       12.39418586       7.38827068      -0.22670605
C       13.62421300       8.11998129      -0.25457041
C        7.34159442       1.13038000       3.63414463
C        8.58180595       1.80871745       3.74718263
C        1.29669355       1.01837040      -0.36856681
C        2.50463034       1.67855657      -0.37895826
C       11.01306902       3.19615751       3.48772955
C        2.43998128       3.93733175       3.35405259
C        3.74829090       1.00385648      -0.21446881
C        4.94518942       1.75617843      -0.27443930
C        3.65341403       3.25857427       3.52922141
C        4.93704801       3.92778135       3.58068766
C        6.22643728       1.05854694      -0.18072592
C        7.44444803       1.74807253      -0.16368290
C        6.14262530       3.23599290       3.64948088
C        7.35403971       3.98846670       3.80151321
C        8.71172427       1.03159266      -0.26219121
C        9.92521125       1.77900631      -0.34898386
C        8.56391695       3.28463523       3.75720927
C        9.78980880       3.90191069       3.56688267
C        2.53498238       3.16243434      -0.45629912
C        3.75683754       3.84982918      -0.29566887
C       12.27677101       5.39835700       3.33429513
C        3.63811920       6.10153375       3.41031573
C        5.01760520       3.17768677      -0.21336843
C        6.20628837       3.86585266       0.05222152
C        4.88748968       5.33292209       3.57807870
C        6.09752073       6.07250000       3.70301476
C        7.42786647       3.17150751      -0.02480579
C        8.69017820       3.87190375      -0.20756188
C        7.34546743       5.41162461       3.84835609
C        8.59736799       6.10058226       3.75849994
C        9.90189038       3.20858703      -0.44566215
C       11.16874659       3.90737707      -0.41532884
C        9.81725707       5.34724768       3.60711443
C       11.01694104       6.14956773       3.38128296
C        3.72194300       5.26608312      -0.22882201
C        4.96888793       5.97346616      -0.13703823
C       13.47114734       7.51035128       3.56494814
C        4.88071783       8.22170987       3.76787384
C        6.23501844       5.30904413       0.04063010
C        7.44743166       6.01240231      -0.00862356
C        6.11109993       7.48708168       3.77011404
C        7.35476640       8.20949925       3.73327412
C        8.67218271       5.32784518      -0.19069438
C        9.87047543       6.02118363      -0.31900256
C        8.61080717       7.50680760       3.71292308
C        9.81491631       8.24904672       3.58928755
C       11.06247353       5.29039492      -0.32334096
C       12.37032269       5.98771977      -0.25421151
C       11.03039698       7.56365543       3.35446770
C       12.28343341       8.25149397       3.46031776
64
Lattice="9.860000170089029 0.0 0.0 4.930000085044514 8.53900664730135 0.0 0.0 0.0 29.999997077512198" Properties=species:S:1:pos:R:3 energy=-16268.532543876605 pbc="T T T"
C        4.97454757       7.35643274      -0.18629090
C        6.21605766       8.06459964      -0.18760425
C        9.82149194       1.17629605       3.61368908
C        1.20039783       1.91575958       3.63342781
C        7.45363952       7.32578588      -0.22213397
C        8.65247553       8.03670274      -0.24355679
C        2.44333762       1.19272478       3.55939203
C        3.65947695       1.91764185       3.48837045
C        9.91197420       7.33445775      -0.19711126
C       11.11883822       8.04677572      -0.21575850
C        4.86649281       1.19303833       3.51279662
C        6.13055962       1.86270883       3.57527649
C       12.37223060       7.33188725      -0.28687670
C       13.58994456       8.04740774      -0.22434261
C        7.32429111       1.24284020       3.65208490
C        8.55958940       1.87996581       3.66279385
C        1.31022344       0.94454759      -0.26322947
C        2.53705397       1.66331991      -0.19649600
C       11.03014654       3.38202246       3.70109108
C        2.43176494       4.03597415       3.62319707
C        3.75867150       0.92600882      -0.16730645
C        4.94777274       1.62105601      -0.08904073
C        3.64637399       3.32190702       3.50560868
C        4.88718106       4.04752810       3.54076156
C        6.19578845       0.94622379      -0.16099901
C        7.45161132       1.65928914      -0.23625842
C        6.11478757       3.31400522       3.63732547
C        7.31154114       4.03806743       3.65476288
C        8.69931349       0.93197708      -0.26065896
C        9.91686279       1.66487385      -0.28502204
C        8.55535256       3.32460472       3.67643615
C        9.75256068       4.03083709       3.68601021
C        2.51437794       3.06363122      -0.21584329
C        3.75675768       3.78584961      -0.14135789
C       12.26329337       5.45850398       3.60064134
C        3.64154358       6.20831065       3.54997770
C        4.97308533       3.09017434      -0.09337322
C        6.17984976       3.80630615      -0.12864934
C        4.86340466       5.46559727       3.55938414
C        6.13229794       6.19660092       3.56957544
C        7.42224232       3.07359376      -0.22672577
C        8.69416065       3.77741438      -0.19760328
C        7.32578884       5.47093251       3.60484367
C        8.58425616       6.17194401       3.57453797
C        9.92458810       3.10879396      -0.24221090
C       11.14686330       3.77928975      -0.20827180
C        9.80227184       5.45143831       3.66467810
C       11.03845654       6.14152986       3.59239936
C        3.75603888       5.19392961      -0.15079391
C        5.02990555       5.93310030      -0.16676415
C       13.50487445       7.64577247       3.57572512
C        4.89861669       8.30533746       3.54152275
C        6.26055386       5.22350468      -0.15517274
C        7.47127413       5.89375594      -0.14556220
C        6.12901949       7.58625652       3.60400458
C        7.33598310       8.33567767       3.58475392
C        8.67144716       5.20733132      -0.12984240
C        9.92364647       5.92992932      -0.17588761
C        8.56330465       7.59916228       3.55280259
C        9.80310501       8.30044887       3.57919189
C       11.12432729       5.20526763      -0.23797998
C       12.37703439       5.90221582      -0.24139154
C       11.06110694       7.56899758       3.59691229
C       12.26417979       8.36116971       3.60614420
64
Lattice="9.860000170089029 0.0 0.0 4.930000085044514 8.53900664730135 0.0 0.0 0.0 29.999997077512198" Properties=species:S:1:pos:R:3 energy=-16268.664646301573 pbc="T T T"
C        4.93115272       8.49122509      -0.18474485
C        1.23501334       0.65755552      -0.18840390
C        9.83374595       0.03513118       3.64209376
C        1.24365070       0.75377236       3.61507736
C        7.42797986       8.50790722      -0.17736168
C        3.70083373       0.63959356      -0.30372547
C        2.45515976       0.03852401       3.65704054
C        3.67399678       0.79476827       3.65685419
C        9.87957424       8.50815175      -0.27591140
C        6.18393772       0.67623727      -0.22494900
C        4.88528991       0.04882771       3.71467717
C        6.13599741       0.74216813       3.65496107
C       12.35756385       8.48975693      -0.32082370
C        8.63510319       0.66657644      -0.23488098
C        7.39533142       0.06797977       3.68841013
C        8.62076774       0.77567734       3.65652979
C        1.24454993       2.09750403      -0.25828961
C        2.48507697       2.78467604      -0.30325219
C       11.08031422       2.17953233       3.61609393
C        2.44963323       2.90939025       3.67033774
C        3.72900868       2.08124292      -0.26256194
C        4.93069916       2.80161059      -0.27748111
C        3.68241624       2.18594528       3.65414269
C        4.93058971       2.87853930       3.69126263
C        6.17194796       2.10124985      -0.24465520
C        7.41733599       2.79003298      -0.23223357
C        6.16407968       2.16366661       3.67712043
C        7.37277174       2.90616800       3.66783330
C        8.65600344       2.06968108      -0.15597830
C        9.84279841       2.78777602      -0.26241799
C        8.61168964       2.18092654       3.59508030
C        9.83372031       2.89879765       3.62922351
C        2.47261393       4.20626030      -0.38379558
C        3.72893473       4.91391744      -0.39801764
C       12.30805087       4.32715277       3.69722596
C        3.69315575       5.03171190       3.72419897
C        4.95975855       4.23340093      -0.30603863
C        6.17728912       4.92452483      -0.18918087
C        4.90780227       4.30304902       3.66486149
C        6.13013959       5.04488979       3.71257995
C        7.39305179       4.20974975      -0.23691411
C        8.64490009       4.91027121      -0.28073097
C        7.37006912       4.35890395       3.63497090
C        8.63339741       5.03850544       3.69228412
C        9.88020923       4.20393136      -0.28812498
C       11.11380864       4.94734284      -0.38400559
C        9.84918671       4.31772168       3.68575385
C       11.07809572       5.00305578       3.67801276
C        3.70516917       6.34463206      -0.31381225
C        4.96997253       7.08330679      -0.26080391
C       13.52490899       6.48257050       3.72325438
C        4.92247099       7.14390536       3.65179995
C        6.17492173       6.36175592      -0.27624072
C        7.40673156       7.04620952      -0.21195944
C        6.14269728       6.43847954       3.68976588
C        7.37311783       7.18158535       3.68427682
C        8.61905407       6.33884818      -0.24697427
C        9.87422223       7.06678340      -0.33110867
C        8.62097283       6.46365606       3.67557931
C        9.85034427       7.16208918       3.71506467
C       11.10001351       6.36340254      -0.41199419
C       12.33773342       7.06629829      -0.34478646
C       11.10099458       6.45441133       3.73681188
C       12.29848273       7.18007677       3.71898007
64
Lattice="9.860000170089029 0.0 0.0 4.930000085044514 8.53900664730135 0.0 0.0 0.0 29.999997077512198" Properties=species:S:1:pos:R:3 energy=-16268.21025619175 pbc="T T T"
C        4.97898555       7.33053840      -0.17656993
C        6.23649645       8.03968046      -0.20515900
C        9.82579977       1.23590468       3.54602581
C        1.19946212       1.92002797       3.63773860
C        7.43903785       7.29897359      -0.26199697
C        8.68957378       8.01581137      -0.19015503
C        2.43389963       1.20897998       3.47566978
C        3.62564137       1.94895820       3.48511270
C        9.89585507       7.31828834      -0.25686089
C       11.15488244       8.02345386      -0.24116673
C        4.86003747       1.21645977       3.53604453
C        6.06208093       1.93490967       3.57651293
C       12.38379046       7.29369651      -0.24410008
C       13.60639992       8.03711785      -0.18022700
C        7.35044870       1.19200007       3.63381827
C        8.59138001       1.94138079       3.59555358
C        1.29474620       0.93831015      -0.21604444
C        2.54091120       1.59619993      -0.16389884
C       11.01470183       3.31258045       3.72180003
C        2.42336323       4.09309806       3.68418019
C        3.74405997       0.87949525      -0.13413248
C        4.98942729       1.66070504      -0.09449035
C        3.64265973       3.38896685       3.50915335
C        4.87983931       4.07192765       3.51423421
C        6.20104580       0.91997943      -0.14677695
C        7.41501494       1.62090811      -0.28967201
C        6.08926791       3.31949527       3.56231355
C        7.32888291       4.05193355       3.60300872
C        8.66347535       0.93574853      -0.21532663
C        9.90574071       1.67108663      -0.16529107
C        8.54432415       3.33201352       3.63143510
C        9.79206477       4.05852496       3.63462087
C        2.51044478       3.05600648      -0.13670101
C        3.73144903       3.74497498      -0.11627800
C       12.30599999       5.51765610       3.74108422
C        3.62993145       6.22829490       3.59989987
C        4.99733698       3.05147187      -0.07281117
C        6.24797448       3.76569182      -0.20229762
C        4.89309115       5.50338769       3.58668056
C        6.07555955       6.20685729       3.49030892
C        7.45482469       3.04263238      -0.25125154
C        8.68074514       3.76728323      -0.20702549
C        7.31162298       5.48255647       3.59145083
C        8.55711848       6.18151413       3.50694471
C        9.92628008       3.07401873      -0.21568553
C       11.15601733       3.78381451      -0.08986996
C        9.77987386       5.46910940       3.64507444
C       11.02885093       6.19539405       3.71437743
C        3.78726748       5.18370775      -0.16085604
C        4.98269390       5.89499239      -0.19502193
C       13.49196081       7.66718938       3.56486137
C        4.91632229       8.36038288       3.52231645
C        6.19324950       5.17787457      -0.18390872
C        7.42445984       5.90129687      -0.21529508
C        6.14240543       7.66297423       3.52443438
C        7.39565582       8.30486320       3.49583742
C        8.67718272       5.18135614      -0.13098320
C        9.89145456       5.87547747      -0.19537788
C        8.60786889       7.60668546       3.52609086
C        9.81990251       8.33092515       3.59213117
C       11.15762549       5.16776413      -0.09105020
C       12.41398474       5.88209551      -0.24252149
C       11.03351471       7.61263991       3.57951234
C       12.25404272       8.33099220       3.66057535
64
Lattice="9.860000170089029 0.0 0.0 4.930000085044514 8.53900664730135 0.0 0.0 0.0 29.999997077512198" Properties=species:S:1:pos:R:3 energy=-16267.228961851872 pbc="T T T"
C        4.96275994       7.20385614      -0.17646640
C        6.22736017       7.89778421      -0.11862665
C        9.77648695       1.35071945       3.33352703
C       11.02587124       2.05441583       3.41956736
C        7.44983652       7.17688016      -0.24605828
C        8.69117702       7.93626484      -0.14348864
C        2.41903469       1.33564844       3.39869079
C        3.65034165       2.00490483       3.52612340
C        9.90590439       7.21215037      -0.16250661
C       11.15573139       7.91393588      -0.05580563
C        4.91288312       1.36021167       3.49257672
C        6.11464065       2.06178618       3.39728081
C       12.38216751       7.24955132      -0.06926650
C       13.61660699       7.92386786      -0.13607688
C        7.34054630       1.28149239       3.48194468
C        8.53879170       2.05438724       3.37079093
C        1.29262137       0.78924569       0.13222260
C        2.51802022       1.51530159       0.07579579
C       11.04172513       3.48966112       3.57476475
C        2.42506606       4.16650280       3.68045508
C        3.73459634       0.82736346      -0.11445094
C        5.01919266       1.57561422      -0.26046768
C        3.62033373       3.45637376       3.68261541
C        4.86150858       4.13666743       3.67591554
C        6.20316965       0.80030762      -0.14499525
C        7.46180853       1.48199451      -0.15471030
C        6.08773764       3.46373622       3.39932183
C        7.36900325       4.17284870       3.34743456
C        8.66486363       0.78200352      -0.07405846
C        9.90383477       1.46887775       0.07107285
C        8.60737490       3.49139845       3.36676312
C        9.82414132       4.22363460       3.55021730
C        2.53122769       2.96707421       0.12601968
C        3.74067799       3.63830950       0.00147506
C       12.27576332       5.58103913       3.73325440
C       13.47628933       6.30367066       3.68091752
C        4.97952687       2.93101915      -0.24817127
C        6.23615431       3.63886166      -0.29999839
C        4.90961552       5.62238113       3.57691522
C        6.09110680       6.35251513       3.30657374
C        7.43481481       2.94407576      -0.16396293
C        8.67870905       3.65866152      -0.08447161
C        7.34590719       5.61785835       3.25216527
C        8.54799897       6.31970795       3.40944805
C        9.91860998       2.87637503       0.01952872
C       11.14396841       3.63649624       0.10041917
C        9.76888785       5.64075820       3.62563249
C       11.01680793       6.30190177       3.76480935
C        3.79763132       5.11245446      -0.00318182
C        4.99594574       5.77643574      -0.20282711
C       13.49785808       7.71147853       3.62564827
C        4.89098998       8.45127138       3.45571708
C        6.19424142       5.03160541      -0.35012170
C        7.44963044       5.78133814      -0.34875511
C        6.09124977       7.76758390       3.32599301
C        7.28796687       8.43955474       3.34358029
C        8.72502442       5.06888805      -0.17415324
C        9.91398071       5.73630456      -0.15002779
C        8.51766172       7.73734722       3.43224240
C        9.81281514       8.46859540       3.54119737
C       11.18812149       5.05801838       0.04428816
C       12.39103756       5.82503371      -0.00738613
C       11.04449185       7.71745862       3.64670430
C       12.30015794       8.44557329       3.70042553
64
Lattice="9.860000170089029 0.0 0.0 4.930000085044514 8.53900664730135 0.0 0.0 0.0 29.999997077512198" Properties=species:S:1:pos:R:3 energy=-16269.046605830103 pbc="T T T"
C        5.01440859       7.13703492      -0.02848258
C        6.21469993       7.84510421      -0.02008383
C        9.81796798       1.41910841       3.40357346
C       11.04792412       2.13364783       3.43261017
C        7.45445987       7.10028176      -0.10193170
C        8.68685538       7.80045221      -0.10811293
C        2.41029972       1.40354835       3.46564709
C        3.66232550       2.14581212       3.52392955
C        9.91888311       7.10116226      -0.01089530
C       11.14628551       7.83091172      -0.04323216
C        4.87957407       1.43312243       3.46980111
C        6.09052704       2.11979552       3.46670704
C       12.37741597       7.11066533       0.05541123
C       13.60794597       7.84544635       0.04877052
C        7.32412250       1.42491792       3.35752233
C        8.56749219       2.11036542       3.34611036
C        1.29619562       0.74272423      -0.01318381
C        2.52569426       1.43091379       0.02281210
C       11.03760365       3.55777302       3.41235576
C       12.24193760       4.27485336       3.52798793
C        3.76393477       0.71320635      -0.06690207
C        4.97781911       1.44506782      -0.08820756
C        3.63132270       3.55188660       3.52956947
C        4.88436406       4.23701758       3.46748105
C        6.21624598       0.70611109      -0.07420439
C        7.41917586       1.41457183      -0.03876163
C        6.09364378       3.51434070       3.45272359
C        7.31759321       4.25169518       3.28339583
C        8.67808885       0.73763844       0.05990147
C        9.94061159       1.44770143       0.08528111
C        8.55280670       3.55232635       3.27559657
C        9.78943806       4.26101386       3.31587467
C        2.52159349       2.83636413       0.00718695
C        3.74582097       3.54408142      -0.10393821
C       12.27576627       5.67119602       3.52893646
C       13.50910341       6.44494474       3.53908536
C        4.98310703       2.86254046      -0.11532651
C        6.22650235       3.55928160      -0.19120019
C        4.85376059       5.70834160       3.48918784
C        6.11332040       6.43568817       3.42121793
C        7.47840390       2.88204058      -0.11663394
C        8.68496127       3.58779080      -0.06239901
C        7.33748182       5.67034411       3.38327763
C        8.54419202       6.39188414       3.37722951
C        9.91116174       2.86720523       0.09791670
C       11.17271031       3.56527943       0.07151655
C        9.78034813       5.68540428       3.38260124
C       11.05215603       6.36921600       3.46603557
C        3.77579142       4.97148702      -0.03666342
C        4.98930404       5.72242365      -0.12333283
C       13.49626470       7.84991687       3.46562145
C       14.73440662       8.52454597       3.42118835
C        6.21797740       4.98905754      -0.14463043
C        7.46143681       5.68639718      -0.12484732
C        6.11743399       7.82164036       3.43287245
C        7.36314050       8.51827698       3.43778076
C        8.68748247       4.98848961      -0.09164870
C        9.90609370       5.69380007       0.00862454
C        8.57445532       7.79102703       3.43027730
C        9.80331503       8.53675660       3.51411096
C       11.13745390       5.00391656       0.04143271
C       12.39756686       5.66911359       0.04431380
C       11.02614831       7.83175574       3.49677018
C       12.25368480       8.53860830       3.44437315
64
Lattice="9.860000170089029 0.0 0.0 4.930000085044514 8.53900664730135 0.0 0.0 0.0 29.999997077512198" Properties=species:S:1:pos:R:3 energy=-16267.740242121658 pbc="T T T"
C        5.01019738       7.04604092       0.08324404
C        6.21255144       7.78029147       0.02417672
C        9.78022981       1.42196190       3.39995780
C       11.01013271       2.19993267       3.40612720
C        7.44270774       7.09495539       0.05101268
C        8.70848427       7.76421178       0.09121388
C        2.36024543       1.46318261       3.51018274
C        3.61372654       2.23073334       3.44718621
C        9.95656211       7.07085065       0.01182313
C       11.15059630       7.80223983       0.08448344
C        4.86235851       1.50499887       3.45381115
C        6.10254046       2.18023338       3.39464819
C       12.37168534       7.05963391       0.02797479
C       13.63850211       7.73910625       0.06417874
C        7.31407812       1.50438065       3.43768019
C        8.56795758       2.20242035       3.35241090
C        1.29957366       0.63215715       0.00301124
C        2.50067254       1.37001054      -0.13421432
C       11.04706925       3.61735108       3.34329829
C       12.24112612       4.31243278       3.28408209
C        3.76459046       0.69497817      -0.02161608
C        4.97793053       1.35265990      -0.01439856
C        3.65190052       3.60833017       3.35186170
C        4.91459186       4.26706692       3.37573769
C        6.21395255       0.66576397       0.08554832
C        7.47846700       1.36919808       0.03735067
C        6.17902448       3.57840901       3.35270375
C        7.33594070       4.37976278       3.45299178
C        8.71592759       0.61450183       0.00356242
C        9.95247218       1.36350787      -0.05179557
C        8.55937051       3.63628524       3.44238341
C        9.82184394       4.30920757       3.34493505
C        2.53936909       2.75214297      -0.08401805
C        3.76809076       3.51572504      -0.00075528
C       12.25073568       5.72315427       3.26393811
C       13.48081605       6.42979682       3.26797381
C        4.96148504       2.81882418      -0.01719781
C        6.22495926       3.51536022       0.04842838
C        4.84219185       5.72327752       3.41455848
C        6.11652293       6.44270061       3.48404782
C        7.46742873       2.75270006       0.05063011
C        8.69698554       3.50320482       0.04527219
C        7.35902493       5.79241979       3.44565988
C        8.58092447       6.48108361       3.36922122
C        9.92676125       2.79824833      -0.12911079
C       11.14937662       3.51014527      -0.07079677
C        9.81319672       5.73548519       3.27642777
C       11.04451749       6.44352392       3.25087854
C        3.70998480       4.88446167      -0.04941438
C        4.99819086       5.63315614       0.07852406
C       13.51137515       7.86248936       3.36352805
C        9.75337018       0.00867286       3.44416116
C        6.24288179       4.96330717       0.05301229
C        7.49960093       5.62734958       0.04415604
C        6.07073013       7.86443868       3.52270494
C        2.40349336       0.03573658       3.55698915
C        8.66099161       4.92677291       0.08696520
C        9.89400435       5.69759814       0.00999804
C        8.58619858       7.90365289       3.46008013
C        4.83256061       0.08860689       3.33997449
C       11.10390328       4.96619417       0.00795012
C       12.35679871       5.63326164      -0.03911856
C       11.04701404       7.91215615       3.27609253
C        7.34951397       0.08054536       3.33368479
64
Lattice="9.860000170089029 0.0 0.0 4.930000085044514 8.53900664730135 0.0 0.0 0.0 29.999997077512198" Properties=species:S:1:pos:R:3 energy=-16267.768008889865 pbc="T T T"
C        4.99930997       7.02483403       0.09722848
C        6.27516737       7.73444345       0.10842352
C        9.75703317       1.50416275       3.41111439
C       11.01745277       2.16269244       3.40909802
C        7.50179478       7.00304737       0.11204510
C        8.69732966       7.78193217       0.10230440
C        2.42540425       1.47849421       3.48943730
C        3.59756403       2.20741247       3.42777877
C        9.90553365       7.06190664       0.09800051
C       11.15641764       7.74168562       0.07693758
C        4.83845689       1.56090310       3.33252131
C        6.12874341       2.19126869       3.41328260
C       12.39058992       7.03134656       0.04342936
C       13.62809291       7.72266272       0.01627196
C        7.34992021       1.49131319       3.37508496
C        8.53092934       2.23406109       3.42035222
C        1.30503413       0.63403745      -0.06907620
C        2.54827760       1.31486553      -0.10075540
C       11.01527864       3.63622411       3.29530671
C       12.29591025       4.34240619       3.20058859
C        3.74454804       0.60904531      -0.00389569
C        4.97208454       1.40157339       0.03209627
C        3.62647947       3.64849882       3.28615565
C        4.91211404       4.31295437       3.31097130
C        6.17353049       0.65081720       0.14210922
C        7.45134313       1.30873557       0.08218310
C        6.15157424       3.60512862       3.40506823
C        7.35415508       4.35995206       3.44153150
C        8.69422474       0.62757323      -0.03067643
C        9.90566873       1.34846546      -0.09957811
C        8.58241135       3.66224366       3.50479819
C        9.79388690       4.38221003       3.39362768
C        2.49483443       2.77588092      -0.12777180
C        3.71194003       3.44554255      -0.00673044
C       12.26521607       5.75848068       3.10471192
C       13.48519094       6.45639516       3.20613977
C        5.01912660       2.79658297       0.06370349
C        6.25128152       3.49720895       0.10919260
C        4.91367488       5.71348556       3.36591023
C        6.05821581       6.50798860       3.47196834
C        7.48607695       2.76160758       0.14185779
C        8.73074224       3.47215173       0.06136273
C        7.30042399       5.80696625       3.50346019
C        8.58508834       6.49488071       3.39147721
C        9.94428937       2.79124083      -0.15492427
C       11.15678148       3.49625845      -0.17064604
C        9.79752129       5.78749965       3.27503061
C       11.02075291       6.49944392       3.13787801
C        3.76320513       4.90936508       0.03407024
C        4.98814549       5.58485791       0.10681535
C       13.45636325       7.88833538       3.31429214
C        9.81033239       0.07371139       3.45564116
C        6.24296165       4.89141002       0.18960090
C        7.42962648       5.62749551       0.14704711
C        6.10289838       7.92300314       3.54058704
C        2.39633303       0.05763663       3.59169240
C        8.69604095       4.90166146       0.12018256
C        9.88423704       5.60459270       0.02523273
C        8.56797829       7.91892504       3.44632149
C        4.87809310       0.13931096       3.32377155
C       11.12280392       4.88908404      -0.07425468
C       12.35160644       5.61359291      -0.04734082
C       11.02143621       7.90534683       3.21052452
C        7.34052757       0.09615275       3.31943413
64
Lattice="9.860000170089029 0.0 0.0 4.930000085044514 8.53900664730135 0.0 0.0 0.0 29.999997077512198" Properties=species:S:1:pos:R:3 energy=-16265.333612093478 pbc="T T T"
C        4.96890863       8.53509026      -0.06409986
C        1.29871485       0.66938555      -0.03017752
C        9.79841954       0.10527621       3.45892651
C        1.19856979       0.73179245       3.44509491
C        7.44889489       8.51782342      -0.03735461
C        3.72777421       0.73356133      -0.05359403
C        7.37071692       8.53417919       3.41166852
C        3.67520956       0.65420510       3.44170602
C        9.82642391       8.48878967      -0.02362160
C        6.12456671       0.60375246      -0.00741078
C        9.86387515       8.52311036       3.44737454
C        6.22432822       0.72617718       3.39101971
C       12.34339897       8.49715588      -0.06511741
C        8.66800602       0.70074331      -0.01742952
C       12.37273346       8.50743493       3.38686667
C        8.58403431       0.79751132       3.49400544
C        1.23430835       2.08286390      -0.17890773
C        2.42652731       2.79913080       0.07431877
C       11.05849699       2.12042656       3.42970640
C        2.48844121       2.78120335       3.49442547
C        3.64250098       2.12773085       0.01840862
C        4.85356635       2.89365172      -0.00705680
C        3.70969491       2.07413386       3.39276000
C        4.91964215       2.85354222       3.32813953
C        6.07374038       2.17076581      -0.07400916
C        7.38157179       2.88881835      -0.12048822
C        6.18781073       2.16825841       3.42184010
C        7.41069133       2.86846533       3.39991638
C        8.63307105       2.15408959       0.02418855
C        9.87354781       2.85046393       0.01459576
C        8.64060212       2.19838268       3.43898171
C        9.87846696       2.88146081       3.39054445
C       12.33121497       4.32365839       0.04305763
C        3.68518690       5.01497061      -0.05063110
C       12.30239320       4.31862387       3.54295935
C        3.73029935       4.91120791       3.44431301
C        4.93535308       4.29842369       0.05400322
C        6.17841119       4.99779547       0.04163977
C        4.96679268       4.22769594       3.39411082
C        6.14914572       4.96324801       3.36809718
C        7.41357341       4.31339018      -0.08593878
C        8.68655958       4.96851719      -0.10293051
C        7.34533531       4.25845914       3.50996089
C        8.62325246       4.95999421       3.37963436
C        9.93187168       4.26850253       0.01296689
C       11.12912516       4.99922024       0.15994399
C        9.87386530       4.29912868       3.47034045
C       11.05048081       5.06301247       3.42477246
C       13.50936569       6.42582127       0.07190701
C        4.90004639       7.06483901      -0.09062030
C        3.72212640       6.34203888       3.37443223
C        4.91269973       7.20166722       3.35245429
C        6.14924629       6.38423869      -0.10185084
C        7.37593779       7.12032123      -0.02839680
C        6.13822972       6.43350320       3.42084522
C        7.40387216       7.09429181       3.37679567
C        8.65333631       6.43746396      -0.04257844
C        9.88631750       7.07727148      -0.00326169
C        8.64676758       6.38624619       3.32835645
C        9.86247602       7.12101143       3.43063620
C       11.10170647       6.37225879       0.06893718
C       12.28197216       7.10624213       0.03821144
C       11.07165319       6.43944582       3.33667040
C       12.35413947       7.04814110       3.43594581
64
Lattice="9.860000170089029 0.0 0.0 4.930000085044514 8.53900664730135 0.0 0.0 0.0 29.999997077512198" Properties=species:S:1:pos:R:3 energy=-16268.498507605553 pbc="T T T"
C        4.99221866       6.83580304      -0.08240002
C        6.24860946       7.54410601      -0.11255683
C        9.78917677       1.70358519       3.33592991
C       11.01819129       2.43569612       3.42761608
C        7.46175529       6.81196451      -0.15682527
C        8.69322494       7.52404880      -0.13317409
C        2.43267403       1.69306162       3.44813080
C        3.61210063       2.42605501       3.61063445
C        9.94432289       6.85151988       0.00485408
C       11.16451763       7.51525959       0.00017748
C        4.85585880       1.74548625       3.51833794
C        6.09451738       2.42990534       3.41914733
C       12.39300562       6.79349279       0.12008198
C       13.63670266       7.53858539       0.06831994
C        7.31504933       1.73893625       3.34699086
C        8.52854519       2.42359199       3.30595354
C        1.32545123       0.42040674      -0.02002467
C        2.54375975       1.10084535       0.03619606
C       11.02149143       3.87056476       3.46174056
C       12.25627601       4.56259972       3.61611957
C        3.76776242       0.40085732      -0.08950119
C        5.00653538       1.13582864      -0.14941943
C        3.57792193       3.87355332       3.60535442
C        4.87790280       4.56432719       3.47876976
C        6.21377309       0.39621030      -0.10158265
C        7.45536995       1.10813190      -0.03155989
C        6.10042746       3.83159015       3.38012243
C        7.30302013       4.54252180       3.24838593
C        8.71916660       0.41803147       0.09357732
C        9.92107794       1.13962671       0.12017467
C        8.55543341       3.85727841       3.22748372
C        9.77902393       4.57384603       3.32332588
C        2.53340084       2.53915809       0.08172363
C        3.73963973       3.23004041      -0.08752821
C       12.28450322       5.97580199       3.64263804
C       13.46855317       6.72079895       3.60783421
C        4.98839692       2.55168226      -0.17061941
C        6.24882638       3.26686850      -0.24061457
C        4.87223133       5.98283020       3.44940866
C        6.09640853       6.71834677       3.33761992
C        7.47600397       2.54803209      -0.10224919
C        8.73064758       3.28845303      -0.03547727
C        7.30159832       5.98318516       3.29795807
C        8.57244289       6.68071805       3.34320462
C        9.92423413       2.55749079       0.15130170
C       11.18849025       3.27571785       0.17151667
C        9.79491825       5.99420568       3.42135893
C       11.02132775       6.65943623       3.55337348
C        3.78253172       4.66609126      -0.00540722
C        4.99821650       5.41049170      -0.18843545
C       13.46230982       8.16028404       3.49723163
C        9.80771653       0.29838530       3.37605518
C        6.20732663       4.69597890      -0.26103069
C        7.46153639       5.39683461      -0.20680463
C        6.09673884       8.13280323       3.36828452
C        2.40772034       0.28479131       3.37130957
C        8.70091771       4.71004517      -0.11926656
C        9.91487896       5.38651513       0.03927435
C        8.57464167       8.09635279       3.38067459
C        4.84468150       0.32750779       3.51966116
C       11.14007272       4.67817864       0.16249675
C       12.40354990       5.40360942       0.15292170
C       11.02577461       8.12087559       3.50071812
C        7.32490834       0.31416426       3.47049032
64
Lattice="9.860000170089029 0.0 0.0 4.930000085044514 8.53900664730135 0.0 0.0 0.0 29.999997077512198" Properties=species:S:1:pos:R:3 energy=-16261.729029054397 pbc="T T T"
C        4.98343438       8.46647944      -0.14505046
C        1.24431230       0.66224395      -0.19091327
C        9.81445289       0.02877148       3.51308848
C        1.19752956       0.70591488       3.50278379
C        7.42926954       8.51546491      -0.10521705
C        3.70495225       0.63771720      -0.10084019
C        7.30453956       8.46690835       3.45618248
C        3.74030232       0.69120277       3.47485534
C        9.91899354       8.49470074      -0.06501980
C        6.18430550       0.80620784      -0.09744342
C        4.98339593       0.02514694       3.48475676
C        6.15852357       0.66232974       3.41758353
C        7.37360787       0.03653327      -0.08752525
C        8.62633272       0.72453253      -0.07967176
C        7.39506027       0.00820845       3.45110063
C        8.61370995       0.77323502       3.56058312
C        1.22281060       2.09984085      -0.17239126
C        2.39632810       2.88848508       0.02348455
C        1.28559514       2.18386087       3.51327779
C        2.42242653       2.91023229       3.61067685
C        3.67205140       2.16837673       0.02439167
C        4.87198976       2.86394452      -0.00639027
C        3.69860931       2.09874738       3.43205900
C        4.97911570       2.68679483       3.32508884
C        6.14572233       2.08469984      -0.16257168
C        7.31091010       2.82352838      -0.20110555
C        6.20247550       2.06815870       3.37912657
C        7.35927833       2.92206725       3.49326594
C        8.58344370       2.13885983      -0.05296003
C        9.89523587       2.79080600      -0.06521404
C        8.61048376       2.27574621       3.49537598
C        9.87715263       2.92392488       3.48023003
C        2.49446468       4.17544089       0.16067856
C        3.70994437       5.01099308       0.04143764
C        2.46637551       4.18956239       3.66283921
C        3.68828096       4.96822040       3.50875205
C        4.89369852       4.35316740       0.05016867
C        6.18062772       4.97592994      -0.02249066
C        4.85326759       4.20042022       3.36253811
C        6.15379471       5.07871354       3.41705898
C        7.46446679       4.26228975      -0.20380226
C        8.70815002       4.99587968      -0.18779258
C        7.43410094       4.34799681       3.50218529
C        8.59860838       5.00459690       3.42854588
C        9.88320371       4.24868689       0.05228364
C       11.13529161       4.94086285       0.26877079
C        9.83362861       4.31825708       3.48597841
C       11.14884713       4.93514996       3.51095675
C       13.55214527       6.39633888       0.03479002
C        4.91356346       7.14321812      -0.16206192
C        3.75618777       6.39558065       3.39125536
C        4.88047725       7.14396847       3.36617349
C        6.14709188       6.43780709      -0.17283496
C        7.45505246       7.05622334      -0.14288028
C        6.12249809       6.44557874       3.36770968
C        7.35536095       7.10445550       3.36363553
C        8.59438830       6.30974738      -0.11463335
C        9.82920838       7.09035077      -0.00466279
C        8.59705641       6.39067234       3.30851024
C        9.84241190       7.14414398       3.38413940
C       11.07344081       6.43499600       0.18586889
C       12.34205703       7.11749535       0.08611034
C       11.14241644       6.47712088       3.36607982
C       12.38354889       7.13545633       3.39909110
64
Lattice="9.860000170089029 0.0 0.0 4.930000085044514 8.53900664730135 0.0 0.0 0.0 29.999997077512198" Properties=species:S:1:pos:R:3 energy=-16263.745497498721 pbc="T T T"
C        4.99481874       8.47257588      -0.65109525
C        1.21671317       0.62474046      -0.68421696
C        9.90504854       0.09276485       4.06685567
C        1.21026671       0.91097035       4.08376360
C        7.35526137       8.42566890      -0.66145910
C        3.76474822       0.53245677      -0.75382758
C        2.44612307       0.15184893       4.01829024
C        3.67452725       0.87118919       3.94619885
C        9.91211914       8.38137680      -0.62780297
C        6.18510218       0.54348420      -0.54468219
C        4.89712093       0.07014601       4.00675305
C        6.06913478       0.87283778       4.02333363
C       12.33097241       8.38798595      -0.59210879
C        8.64477783       0.56408864      -0.66112287
C        7.32466579       0.17942341       3.98351796
C        8.61061687       0.80036678       3.95789478
C        1.28579332       1.99227318      -0.51889335
C        2.48317399       2.66308547      -0.53690166
C       11.03899786       2.24387179       4.00889366
C        2.45442815       2.96357588       3.85419913
C        3.77993953       2.04012968      -0.64945553
C        5.02453284       2.69691218      -0.57738485
C        3.64633652       2.27857209       3.97119099
C        4.88363048       3.08187715       4.17154126
C        6.25774081       2.01177034      -0.62614353
C        7.42015595       2.72180079      -0.61776746
C        6.09101609       2.30759993       4.06970324
C        7.33146722       2.98428090       4.00445173
C        8.62952046       1.95258076      -0.73970609
C        9.90266439       2.67515707      -0.69573739
C        8.59323763       2.27668784       4.01397156
C        9.83200467       2.93307003       4.05040229
C        2.53390863       4.11926749      -0.46912303
C        3.80357000       4.88046147      -0.42917228
C       12.37193579       4.45538109       3.83619477
C        3.64470469       5.17111357       3.92225877
C        4.93911270       4.11619511      -0.57729611
C        6.20610201       4.81406916      -0.68402864
C        4.86438376       4.47484473       4.08502272
C        6.17084167       5.12824525       4.08065277
C        7.40409006       4.06973085      -0.69739978
C        8.59606154       4.78527402      -0.58711075
C        7.35525742       4.39906175       3.89472077
C        8.57355905       5.15695658       4.03814335
C        9.81346393       4.07232698      -0.60787690
C       11.07746862       4.82319065      -0.56336886
C        9.84646633       4.42910517       3.98429592
C       11.07098468       5.10022411       3.92123530
C        3.76726844       6.21990601      -0.58567316
C        4.94370056       6.95291815      -0.58990015
C       13.47505288       6.58564497       3.96678751
C        4.89668216       7.29609249       4.03838492
C        6.18187698       6.24149251      -0.70001170
C        7.45987400       6.98692331      -0.64273890
C        6.08609496       6.56672758       4.09808032
C        7.41323423       7.30979198       4.07367485
C        8.68145801       6.27972269      -0.58368144
C        9.90000515       6.98260661      -0.50616705
C        8.61298031       6.55873703       4.06964506
C        9.81860099       7.23106579       4.01265919
C       11.10690960       6.26174101      -0.52400281
C       12.42649511       6.93549750      -0.56250019
C       11.05824754       6.52692374       4.09476637
C       12.26296011       7.22658146       3.90087440
64
Lattice="9.860000170089029 0.0 0.0 4.930000085044514 8.53900664730135 0.0 0.0 0.0 29.999997077512198" Properties=species:S:1:pos:R:3 energy=-16265.14802446901 pbc="T T T"
C        4.93695533       8.48407264      -0.50621142
C        1.26511197       0.66156263      -0.44861029
C        9.82248484       0.02992017       3.59948279
C        1.21874138       0.77686941       3.74102210
C        7.39510267       8.51320303      -0.55873762
C        3.71272686       0.68533213      -0.32236186
C        2.46682316       0.02989059       3.54522419
C        3.71306703       0.72881966       3.55925103
C        9.83006817       8.47473424      -0.20100005
C        6.13893668       0.59591770      -0.23411880
C        4.99601870       0.07805669       3.37604434
C        6.16776633       0.82727669       3.51762211
C       12.32602861       8.48048163      -0.17995388
C        8.62915959       0.63554800      -0.44278007
C        7.35430495       0.01642380       3.56275034
C        8.58985565       0.74329217       3.69688677
C        1.29613055       2.11690161      -0.22524677
C        2.48138046       2.83768833       0.13168326
C       11.06441891       2.19086837       3.94364314
C        2.46995272       2.86693013       3.87609227
C        3.67317051       2.13384503      -0.13854286
C        4.97185086       2.80258574      -0.16481286
C        3.68001828       2.15416748       3.70074893
C        4.86271249       2.91110392       3.53400647
C        6.16423645       2.07896625      -0.34124573
C        7.43636579       2.81279281      -0.49319622
C        6.14011002       2.19971181       3.55870676
C        7.40733400       2.84729197       3.53757678
C        8.67158914       2.10840032      -0.51839740
C        9.90298484       2.81613831      -0.20916807
C        8.61366854       2.12999273       3.79566228
C        9.86724431       2.90623209       3.87759198
C        2.49087860       4.23057999       0.35420867
C        3.71432024       4.96684395       0.26304903
C       12.28855568       4.30536414       3.80507069
C        3.63726532       5.00853104       3.62599534
C        4.89642383       4.23324416      -0.05221757
C        6.12877792       4.94882184      -0.44882524
C        4.94877353       4.37094695       3.51839710
C        6.21474233       4.99184299       3.31669404
C        7.41018157       4.27654928      -0.47033187
C        8.62163443       5.01483651      -0.23817816
C        7.42604532       4.23110651       3.48820085
C        8.61513768       4.95749963       3.48407346
C        9.87231235       4.27110557       0.00228259
C       11.04352951       4.91286242       0.33599923
C        9.82588260       4.31159369       3.76948201
C       11.06710576       5.02463834       3.75147075
C        3.74876713       6.38488649       0.13446970
C        4.91294524       7.03068791      -0.30143204
C       13.56470001       6.43481655       3.56437823
C        4.94704408       7.15892609       3.47709948
C        6.16647270       6.36046032      -0.50627453
C        7.42634112       7.08473156      -0.54377605
C        6.16457071       6.47291559       3.40339894
C        7.39027916       7.11622834       3.38583236
C        8.68270136       6.43771243      -0.28748704
C        9.84640619       7.06183269      -0.03461452
C        8.58878190       6.40129255       3.40134707
C        9.81729454       7.17948813       3.42243465
C       11.11423360       6.36948813       0.27105239
C       12.33055928       7.05790940       0.15823328
C       11.05441890       6.42337106       3.55273357
C       12.33660445       7.15685746       3.62762126
64
Lattice="9.860000170089029 0.0 0.0 4.930000085044514 8.53900664730135 0.0 0.0 0.0 29.999997077512198" Properties=species:S:1:pos:R:3 energy=-16264.370899999469 pbc="T T T"
C        5.03441749       8.09547426      -0.53949090
C        1.30580419       0.28207784      -0.64714041
C        9.78184882       0.37626254       3.89759595
C        1.11725535       1.14850958       3.86626876
C        7.45687853       8.11875569      -0.41450751
C        3.70149238       0.28564913      -0.42296837
C        2.37556097       0.41711745       3.75837077
C        3.66493939       1.04845030       3.90787894
C        9.94540355       8.11691089      -0.49478467
C        6.19328500       0.33585231      -0.53254650
C        4.90713080       0.38999752       3.96380191
C        6.08678221       1.16178311       3.84740066
C       12.34985727       8.11201737      -0.42668954
C        8.71847738       0.28675641      -0.56103401
C        7.28175704       0.49326426       3.84458662
C        8.55126756       1.07450239       3.81183465
C        1.37392102       1.74153732      -0.47311929
C        2.54207271       2.49800344      -0.40677431
C       11.00551823       2.57446379       3.92334238
C        2.37592677       3.22222932       3.91917752
C        3.78409946       1.72977434      -0.34423627
C        5.06574172       2.34692457      -0.43683548
C        3.58065413       2.51578200       3.92253386
C        4.84221355       3.30453272       3.89467246
C        6.29316088       1.68854771      -0.58297448
C        7.48956147       2.43390850      -0.53951752
C        6.08734423       2.62943034       3.75646878
C        7.30009763       3.21133402       3.88550660
C        8.74570183       1.74554837      -0.53007164
C       10.01163021       2.43010057      -0.47045216
C        8.56747050       2.53693072       3.88505699
C        9.78027024       3.27530965       3.90843406
C        2.53589837       3.87526305      -0.27229968
C        3.72160086       4.55292311      -0.38066700
C       12.24579187       4.65286802       4.01626007
C        3.55205717       5.41856014       3.87340049
C        5.00701162       3.81419317      -0.40120932
C        6.22593935       4.54758096      -0.43135430
C        4.82430483       4.64585460       3.83318057
C        6.19440608       5.40753173       3.80975419
C        7.47776497       3.89197378      -0.49564347
C        8.68736514       4.63538624      -0.52002430
C        7.37164475       4.64963098       3.80127558
C        8.55404906       5.42970391       3.88891915
C        9.93373227       3.83844679      -0.42637303
C       11.20223608       4.51429065      -0.34258176
C        9.76640412       4.70607159       3.87840543
C       11.04014852       5.43838662       3.96254771
C        3.77003516       5.95233716      -0.50203078
C        5.02200177       6.66302132      -0.43155249
C       13.47811047       6.82374031       3.87549673
C        4.83870240       7.54761913       3.82868638
C        6.22845069       5.97400451      -0.52551435
C        7.56091731       6.71348480      -0.54740059
C        6.09645290       6.82222877       3.74421280
C        7.26402975       7.56058305       3.67502912
C        8.70948506       6.00709960      -0.50501047
C        9.93859325       6.66345122      -0.42121033
C        8.48288648       6.83607320       3.80430161
C        9.71449911       7.57567576       3.82800505
C       11.11742529       5.96143794      -0.31425694
C       12.39977057       6.72266052      -0.37170327
C       11.01390021       6.85216571       3.90608541
C       12.26684988       7.54100898       3.79348717
64
Lattice="9.860000170089029 0.0 0.0 4.930000085044514 8.53900664730135 0.0 0.0 0.0 29.999997077512198" Properties=species:S:1:pos:R:3 energy=-16264.574596255674 pbc="T T T"
C        5.02220193       8.17014798      -0.36082276
C        1.26249513       0.25940773      -0.25017976
C        9.78245324       0.39776917       3.81093838
C        1.12427370       1.12848294       3.74724278
C        7.50093597       8.07489052      -0.34629800
C        3.82505001       0.26212317      -0.33438021
C        2.37973569       0.40131581       3.87250126
C        3.59718245       1.17193300       3.84193329
C        9.98263195       8.13511738      -0.41133456
C        6.29308102       0.28755113      -0.35710653
C        4.78702417       0.44277120       3.92848043
C        6.10996011       1.06307662       3.92025324
C       12.41219712       8.08409681      -0.38902138
C        8.68719062       0.33404399      -0.28052982
C        7.34775495       0.40812809       3.74381347
C        8.53209282       1.15202763       3.71622618
C        1.25967122       1.68624145      -0.42235015
C        2.52338308       2.35150750      -0.46656140
C       11.02901264       2.63516294       3.52974399
C        2.36776171       3.29508881       3.59597361
C        3.80733356       1.68899930      -0.52944454
C        4.95552565       2.49608271      -0.46041271
C        3.59132167       2.61526940       3.74088604
C        4.89225798       3.24535102       3.89365491
C        6.20378097       1.72048819      -0.32443838
C        7.45645061       2.37065364      -0.34697834
C        6.12328787       2.53422710       3.95823002
C        7.28751627       3.33649292       3.75514162
C        8.66561595       1.67279537      -0.36601997
C        9.93274429       2.37043475      -0.41318528
C        8.51389027       2.66066287       3.63406378
C        9.79442427       3.33999815       3.56862197
C        2.55878146       3.83085459      -0.57120066
C        3.78683857       4.57906493      -0.53395944
C       12.25319772       4.66592364       3.58819309
C        3.62028049       5.40753666       3.79118584
C        5.02890870       3.91291050      -0.44357676
C        6.26739868       4.55819131      -0.37422546
C        4.84178168       4.59994841       3.99991712
C        6.05043923       5.43935685       3.99595832
C        7.48808247       3.83229613      -0.32717255
C        8.69945449       4.53347328      -0.40795948
C        7.27724017       4.76123632       3.96535091
C        8.52134048       5.44609320       3.84970100
C        9.95715470       3.77577663      -0.54017912
C       11.21745992       4.56000654      -0.52086535
C        9.75481270       4.69178347       3.72989016
C       11.02872670       5.36016231       3.67993546
C        3.81532214       5.96813288      -0.53363997
C        5.05299176       6.70865538      -0.49873458
C       13.44421672       6.81275430       3.74006371
C        4.81118412       7.57167260       3.93813731
C        6.15190554       5.95013246      -0.32801263
C        7.48834672       6.67596948      -0.26680667
C        6.05877981       6.82374426       3.99192756
C        7.32481073       7.56988991       3.99319358
C        8.75747073       5.90950236      -0.36292984
C        9.94803814       6.66346798      -0.44152391
C        8.57089783       6.84281645       3.97138622
C        9.80513420       7.57326203       4.01865900
C       11.19811657       6.03768532      -0.51726744
C       12.42885362       6.71836353      -0.54587722
C       11.05222308       6.79981897       3.77838855
C       12.24958009       7.49017279       3.78340433
64
Lattice="9.860000170089029 0.0 0.0 4.930000085044514 8.53900664730135 0.0 0.0 0.0 29.999997077512198" Properties=species:S:1:pos:R:3 energy=-16265.345028085349 pbc="T T T"
C        4.93618526       8.47743588      -0.47490296
C        1.26310743       0.67928302      -0.47561584
C        9.83389483       0.04987977       3.66579918
C        1.23594412       0.73499005       3.75453030
C        7.44851725       8.48479242      -0.53697462
C        3.71146675       0.72281098      -0.40901647
C        2.50756566       0.02131436       3.55201576
C        3.67685914       0.80415499       3.55092722
C        9.86202147       8.49463270      -0.20406355
C        6.19314104       0.61993666      -0.19247706
C        4.87820550       0.09474770       3.44605231
C        6.18084759       0.73898828       3.48355186
C       12.36586498       8.42986729      -0.26420955
C        8.65501152       0.64763834      -0.48651410
C        7.38076032       0.06392830       3.56371860
C        8.56759769       0.73140791       3.73248334
C        1.25502519       2.12300791      -0.24933673
C        2.48121383       2.78406570       0.11767417
C       11.10319336       2.17295177       3.95044456
C        2.44892726       2.90705540       3.89700632
C        3.70181973       2.08702187      -0.11210327
C        4.89617831       2.81053980      -0.20376972
C        3.65699025       2.20424445       3.70507945
C        4.94516477       2.91237684       3.63203262
C        6.16417729       2.08652492      -0.36946702
C        7.40432769       2.80572517      -0.54592849
C        6.16600435       2.17734834       3.60296633
C        7.39424288       2.86266568       3.58760938
C        8.66558539       2.06621825      -0.44730285
C        9.85596447       2.86509913      -0.25956056
C        8.62783835       2.16710873       3.74833921
C        9.82094372       2.85690744       3.92632207
C       12.31712897       4.26489969       0.30894141
C        3.70118968       4.90816511       0.15602267
C       12.27112714       4.33548447       3.79710381
C        3.67440104       5.03756578       3.65086522
C        4.97354086       4.22111439      -0.13588756
C        6.16795762       4.98382484      -0.36372850
C        4.95000011       4.29875597       3.52603762
C        6.16880163       5.05430807       3.37608575
C        7.40336930       4.24565593      -0.46379666
C        8.66713242       4.95393819      -0.27498259
C        7.36726592       4.30226712       3.44274823
C        8.65329884       4.97614883       3.52460890
C        9.87566870       4.26002688      -0.02832877
C       11.14259096       4.95683408       0.28869390
C        9.84076134       4.27979125       3.84643339
C       11.01075980       5.01351034       3.74557447
C        3.73893573       6.36367270       0.17387420
C        4.94287232       7.04317264      -0.35123095
C       13.54612278       6.45526422       3.60119153
C        4.94162010       7.15478587       3.48264474
C        6.15620450       6.38102532      -0.57924937
C        7.36479303       7.09082504      -0.55882537
C        6.18524022       6.42658936       3.42907832
C        7.40555624       7.14985094       3.42539758
C        8.55489900       6.39395178      -0.28043418
C        9.86247010       7.06483901      -0.08740890
C        8.62129426       6.38979776       3.38917194
C        9.83662605       7.16074427       3.48547949
C       11.05742916       6.32256242       0.17872631
C       12.35258849       7.09814707       0.13021511
C       11.07784725       6.43272623       3.60929152
C       12.30592407       7.15807813       3.67038211
64
Lattice="9.860000170089029 0.0 0.0 4.930000085044514 8.53900664730135 0.0 0.0 0.0 29.999997077512198" Properties=species:S:1:pos:R:3 energy=-16259.722386776846 pbc="T T T"
C        5.01528021       7.98266107       0.09289994
C        1.40084473       0.24701667       0.04260506
C        9.70797672       0.54270821       3.64999754
C        1.12487319       1.20177133       3.39122874
C        7.49014519       8.11315324       0.01702625
C        3.77833235       0.23298983      -0.05512825
C        2.35748463       0.51701305       3.74402447
C        3.59561767       1.20501231       3.72636817
C        9.95191509       7.98665042      -0.06657078
C        6.14835495       0.21085216      -0.17521319
C        4.88808917       0.53169065       3.81185536
C        6.09971951       1.23414467       3.62971552
C       12.43805990       8.11169988      -0.13896586
C        8.79847255       0.15249180       0.23356960
C        7.23553139       0.43378479       3.57805997
C        8.49758676       1.22849982       3.57176140
C        1.37479954       1.61411851      -0.16103056
C        2.51332686       2.32726964      -0.53201406
C       11.01003707       2.51710620       3.16742054
C        2.35274591       3.31747101       3.23590317
C        3.71425023       1.68487584      -0.18694166
C        5.06613218       2.33893994      -0.30838038
C        3.61154946       2.62518068       3.45644179
C        4.88137747       3.25074740       3.46011070
C        6.20664037       1.66991921      -0.09537973
C        7.49738933       2.45411362       0.11926065
C        6.14484873       2.61899648       3.62078532
C        7.34197600       3.33989462       3.72056359
C        8.76754962       1.70013321       0.21604444
C        9.96049526       2.35390446      -0.27056826
C        8.54865269       2.60760424       3.36886724
C        9.79737044       3.26617929       3.21019519
C        2.63385057       3.72335989      -0.77061916
C        3.85375740       4.50987435      -0.65486276
C       12.21754494       4.81733381       3.16595140
C        3.53680277       5.40153783       3.52830542
C        5.08084330       3.76279200      -0.44702874
C        6.25880667       4.47142430       0.05354473
C        4.82805952       4.72021872       3.60174270
C        6.11097076       5.39105862       4.03208537
C        7.50889299       3.78326136       0.03257054
C        8.75552042       4.52714611      -0.05516867
C        7.28124826       4.73786023       3.84737404
C        8.57401754       5.40697858       3.76978866
C       10.00568759       3.78770033      -0.21292868
C       11.19512998       4.51295955      -0.60835609
C        9.73271053       4.74478097       3.36170790
C       10.95540379       5.59362049       3.18529475
C        3.72437349       5.90217047      -0.39894054
C        4.90999907       6.59026142      -0.15383178
C       13.51668279       6.82481998       3.71734430
C        4.79240477       7.64808563       3.79744398
C        6.25825254       5.87782415       0.13675426
C        7.52769798       6.60452391       0.10782305
C        6.04622408       6.96241727       3.97225587
C        7.29642478       7.55803917       3.88773496
C        8.70822397       5.95174457      -0.18803809
C        9.85437800       6.65541137      -0.37623000
C        8.53914666       6.90478951       3.80123515
C        9.74944295       7.69176838       3.69531114
C       11.11892302       5.96679882      -0.57698453
C       12.40753236       6.64370953      -0.39559997
C       10.95564832       6.98094717       3.46826788
C       12.30797988       7.58918001       3.40154131
64
Lattice="9.860000170089029 0.0 0.0 4.930000085044514 8.53900664730135 0.0 0.0 0.0 29.999997077512198" Properties=species:S:1:pos:R:3 energy=-16267.649396780565 pbc="T T T"
C        5.01184893       6.76518177      -0.02041119
C        6.21102807       7.51579302      -0.15229658
C        9.79674235       1.68986993       3.48214780
C       10.96612654       2.46045655       3.56069453
C        7.42889289       6.81032085      -0.27839316
C        8.70788774       7.52977647      -0.17124947
C        2.35756154       1.76056022       3.60388626
C        3.63348204       2.40513604       3.50563629
C        9.95440277       6.81680282      -0.05257451
C       11.15274085       7.53865934       0.09081652
C        4.88371922       1.69343827       3.51433183
C        6.07591353       2.49177783       3.40567364
C       12.36487898       6.80085722       0.09842647
C       13.64076794       7.48917792       0.06420043
C        7.30871724       1.74665466       3.42000909
C        8.57627055       2.44376062       3.32995377
C        1.31792312       0.36494424      -0.00039834
C        2.51883762       1.13964248      -0.12546554
C       11.01966930       3.86083294       3.56001419
C       12.23125725       4.54782253       3.61894248
C        3.77112666       0.43437738      -0.20584032
C        5.05821756       1.09686487      -0.15881305
C        3.61427870       3.85225967       3.64865461
C        4.86590121       4.59785316       3.64899281
C        6.26837087       0.42051520      -0.04108958
C        7.51442248       1.16626350      -0.07746213
C        6.09933300       3.91662674       3.39781226
C        7.32648200       4.60149052       3.26042992
C        8.72007963       0.39901843      -0.00735753
C        9.94562540       1.06789422       0.01105109
C        8.56599840       3.88118792       3.26396966
C        9.81940754       4.58211562       3.36673847
C        2.56261010       2.55950321       0.00648887
C        3.79365873       3.26273519      -0.05009176
C       12.25184296       5.99566989       3.58846917
C       13.46327610       6.69850549       3.49326988
C        4.97873905       2.52360098      -0.20319390
C        6.23764317       3.23263359      -0.29429044
C        4.85727864       6.00283417       3.59898584
C        6.12639969       6.66636090       3.43110751
C        7.45716546       2.52858028      -0.21958319
C        8.66919020       3.24785448      -0.07429609
C        7.37043690       6.02703652       3.24879906
C        8.57270123       6.78532970       3.32719198
C        9.88535220       2.50436412       0.01153521
C       11.14915378       3.24129363       0.08749961
C        9.79368181       6.04035048       3.38279449
C       11.01886670       6.73188652       3.58436642
C        3.76963188       4.65642255      -0.08902397
C        5.00672075       5.34918222      -0.09634502
C       13.47913591       8.10873103       3.44377761
C        9.75472396       0.28267634       3.48352721
C        6.24398019       4.65761364      -0.32732637
C        7.51452502       5.36323666      -0.30593904
C        6.05072221       8.10228456       3.46330238
C        2.35024739       0.33150800       3.53552590
C        8.71655271       4.65592166      -0.07799556
C        9.91576932       5.37872771       0.04031458
C        8.53594808       8.17674334       3.52179782
C        4.83422103       0.30909917       3.50396601
C       11.15691261       4.68385504       0.09779543
C       12.38874807       5.38866757       0.03503061
C       11.02319228       8.17641106       3.59980817
C        7.34307145       0.30543914       3.49170214
64
Lattice="9.860000170089029 0.0 0.0 4.930000085044514 8.53900664730135 0.0 0.0 0.0 29.999997077512198" Properties=species:S:1:pos:R:3 energy=-16263.715504975367 pbc="T T T"
C        4.96868087       7.98708525      -0.15418575
C        1.30156834       0.18391365      -0.27930422
C        9.75255575       0.48349004       3.41877462
C        1.14765373       1.19968397       3.53663120
C        7.45132735       7.95512307      -0.16046263
C        3.80290544       0.16766832       0.04238321
C        2.39723522       0.53407381       3.20284851
C        3.59070739       1.27011296       3.27094660
C       10.01511473       7.96029859      -0.03175314
C        6.24090190       0.17511262      -0.05006415
C        4.83342138       0.57279305       3.23117629
C        6.10151798       1.27646872       3.24266516
C       12.42908237       8.03308116      -0.00902782
C        8.72682782       0.14934646      -0.20932780
C        7.22589126       0.51427197       3.38360400
C        8.49545503       1.19674667       3.49509497
C        1.36621247       1.59009659      -0.05855953
C        2.55560556       2.30190085       0.28396702
C       11.01588799       2.71967892       3.81720638
C        2.34289873       3.37911573       3.76055969
C        3.77832544       1.58797669       0.22697819
C        5.09245345       2.29103119       0.11859312
C        3.57347112       2.74210253       3.46466405
C        4.77248560       3.40620016       3.22350521
C        6.24020775       1.59206662      -0.16591324
C        7.52443136       2.29027887      -0.28403604
C        6.08026080       2.73661150       3.19457597
C        7.31222838       3.38979904       3.32621979
C        8.75159022       1.56772622      -0.21053861
C        9.98118647       2.27422679       0.04802116
C        8.57196468       2.68910404       3.61948478
C        9.82283980       3.47517481       3.72596983
C        2.57252433       3.72464267       0.57893287
C        3.79695000       4.44641243       0.42087509
C       12.26026833       4.79192656       3.84423166
C        3.54797218       5.52736918       3.41832698
C        5.07377368       3.76448397       0.27352035
C        6.26129829       4.41761236      -0.01175411
C        4.81783568       4.79031642       3.18540814
C        6.11637404       5.50194320       2.93230883
C        7.51395117       3.73009624      -0.11525453
C        8.72735138       4.47006164      -0.06389576
C        7.27010153       4.79537361       3.19162684
C        8.53227424       5.49997514       3.23086471
C        9.98792283       3.73446323       0.16020923
C       11.17266495       4.43424716       0.49240052
C        9.74426447       4.83379508       3.56531394
C       11.03842696       5.57595532       3.72832045
C        3.78966444       5.82216051       0.24567768
C        4.98493409       6.57988377       0.03267111
C       13.47659696       6.92065820       3.27427040
C        4.80693249       7.64967407       3.17622749
C        6.24873074       5.78315829      -0.17525263
C        7.48748397       6.54302315      -0.24704625
C        6.06811032       6.97922561       2.94774664
C        7.27972982       7.63529030       2.87065130
C        8.70820721       5.90085317      -0.06165557
C        9.92794839       6.59219201       0.12957914
C        8.50502711       6.96651016       3.04816975
C        9.74724910       7.69943946       3.12266698
C       11.17559041       5.91482282       0.45801870
C       12.43319695       6.59423007       0.28814371
C       10.97844957       6.91384987       3.39508005
C       12.24530380       7.63698820       3.44291782
64
Lattice="9.860000170089029 0.0 0.0 4.930000085044514 8.53900664730135 0.0 0.0 0.0 29.999997077512198" Properties=species:S:1:pos:R:3 energy=-16261.00544230233 pbc="T T T"
C        5.01088167       8.49950354      -0.42839926
C        1.23559015       0.72714543      -0.51587817
C        0.04850035       0.02227275       3.75411027
C        1.24719635       0.70561908       3.75623806
C        2.45138338       0.07036984      -0.47446025
C        3.75508148       0.60490805      -0.40093226
C        2.39725691       0.06077606       3.58676635
C        3.66516912       0.84064488       3.55160756
C        9.93854789       8.51313795      -0.23390484
C        6.24793011       0.74636060      -0.24583445
C        9.78857827       8.52615118       3.56353323
C        6.03606039       0.70943983       3.50194865
C       12.36306376       8.51079028      -0.29413367
C        8.64801092       0.66987954      -0.44514351
C       12.31702150       8.52201688       3.61283224
C        8.71716995       0.77688519       3.72341707
C       11.03613649       2.08240837      -0.20878255
C        2.41333167       2.77441375      -0.02160918
C        1.22945131       2.09618181       3.91008660
C        2.39005418       2.96650332       3.87756733
C        3.72256221       2.08134546      -0.10591119
C        4.98320169       2.79101405      -0.23848678
C        3.74882925       2.27874070       3.71047681
C        4.98332691       2.85498376       3.72588109
C        6.17554094       2.08215891      -0.40295257
C        7.36079579       2.78076063      -0.48292900
C        6.17397024       2.12394658       3.58639265
C        7.36690603       2.95950173       3.65708885
C        8.58332242       2.13116509      -0.40507346
C        9.86032752       2.78222090      -0.30592327
C        8.57694398       2.18758302       3.70363496
C        9.86047937       2.81021837       3.95500777
C        2.52087469       4.11278848       0.20180955
C        3.81527974       4.94273723       0.03772929
C       12.34112624       4.36160953       3.80164730
C        3.73246757       5.03879533       3.66452132
C        4.96603740       4.25716452      -0.22839211
C        6.23164632       4.89065868      -0.31224254
C        4.85850029       4.29798393       3.56902821
C        6.08448483       4.99574361       3.50136790
C        7.43642100       4.16801040      -0.42911608
C        8.60871093       4.88505032      -0.31749003
C        7.39128882       4.35767342       3.43155713
C        8.58120646       5.03894914       3.59052202
C        9.86313171       4.21600888      -0.09298868
C       11.06141654       4.95862465       0.14492623
C        9.79909396       4.24760919       3.83897430
C       11.11134364       5.02739224       3.78804543
C        3.72263123       6.33419821       0.02081446
C        4.89843921       7.10607747      -0.35380639
C       13.54054399       6.46402680       3.64513755
C        4.88425560       7.17730809       3.56960206
C        6.11327406       6.35246484      -0.51694403
C        7.39394807       7.05671930      -0.55840336
C        6.12422260       6.47367580       3.42586100
C        7.45654822       7.17629251       3.45392749
C        8.57864976       6.26933518      -0.28896505
C        9.81078595       7.10227644      -0.16231927
C        8.71069489       6.46678070       3.43945597
C        9.87030880       7.15995350       3.53774736
C       11.10003126       6.47943206       0.05491330
C       12.35286753       7.03095512       0.04950706
C       11.04979456       6.51403869       3.69935572
C       12.28736262       7.15262259       3.62798509
64
Lattice="9.860000170089029 0.0 0.0 4.930000085044514 8.53900664730135 0.0 0.0 0.0 29.999997077512198" Properties=species:S:1:pos:R:3 energy=-16266.824677695848 pbc="T T T"
C        4.96322829       6.77488598      -0.01210512
C        6.21431342       7.47761510      -0.13346299
C        9.75568728       1.71539452       3.59452715
C       11.00996016       2.47176597       3.64270706
C        7.49412567       6.79387240      -0.32329856
C        8.69709597       7.51305884      -0.23991648
C        2.38146514       1.73534623       3.69754542
C        3.58130686       2.47169301       3.50859922
C        9.96182242       6.84576361      -0.05420732
C       11.21018620       7.54648128       0.08714071
C        4.81582326       1.79130370       3.46853508
C        6.10848111       2.41737328       3.44094483
C       12.41902222       6.80930330       0.04054038
C       13.62144036       7.48925877       0.03654806
C        7.34753211       1.76723149       3.44762991
C        8.53966924       2.44575234       3.39290395
C        1.30708994       0.39496203      -0.04860881
C        2.53333182       1.09155625      -0.22877665
C       11.01113153       3.91703494       3.59010100
C       12.27663790       4.60816672       3.62969383
C        3.77572931       0.38094406      -0.20999631
C        4.99004354       1.13854605      -0.15696036
C        3.60949069       3.88426129       3.64336669
C        4.89547529       4.56802962       3.65491177
C        6.26423559       0.41483782      -0.00094163
C        7.48130077       1.02821659      -0.11219793
C        6.12474617       3.86950481       3.45425682
C        7.34945679       4.65178243       3.29525445
C        8.72540403       0.32932894      -0.04451297
C        9.91914637       1.08417308      -0.11190213
C        8.57754840       3.90879198       3.31930102
C        9.77993302       4.62408766       3.44617359
C        2.53592500       2.54380609      -0.07829629
C        3.77992967       3.21671167      -0.06819472
C       12.21895690       5.97493135       3.53435551
C       13.43242810       6.68880720       3.50224248
C        5.03812189       2.53706974      -0.22823928
C        6.21879972       3.23998915      -0.28987908
C        4.86403866       5.98521533       3.62023316
C        6.06966130       6.75105633       3.53120031
C        7.45098422       2.50654318      -0.28696544
C        8.69868935       3.18434424      -0.12978422
C        7.31960761       6.09339827       3.28498428
C        8.59587025       6.74854499       3.36404275
C        9.92729270       2.48443114      -0.06824008
C       11.19984108       3.26116942      -0.02283280
C        9.80293246       6.02264389       3.39517964
C       11.01068881       6.70955658       3.52048151
C        3.78379972       4.68256732      -0.08106498
C        5.03772847       5.35831060      -0.11582148
C       13.45308875       8.12225501       3.44762695
C        9.79888789       0.25525174       3.54521335
C        6.25603700       4.65949690      -0.26930520
C        7.47187953       5.38203081      -0.31952810
C        6.07969582       8.13289099       3.54668347
C        2.32074528       0.32761724       3.64628919
C        8.69188989       4.64122533      -0.09936514
C        9.92941950       5.36011893      -0.00616743
C        8.51176149       8.16190601       3.56233129
C        4.85390849       0.34288052       3.53390590
C       11.13097194       4.64710288       0.02355160
C       12.39568162       5.40118879      -0.02119999
C       11.04011598       8.13458001       3.62758773
C        7.33876953       0.34502408       3.48518271
64
Lattice="9.860000170089029 0.0 0.0 4.930000085044514 8.53900664730135 0.0 0.0 0.0 29.999997077512198" Properties=species:S:1:pos:R:3 energy=-16264.407444343773 pbc="T T T"
C        5.04875294       7.79268351       0.24177608
C        6.26474929       8.50728111       0.24006438
C        9.69406130       0.76071380       3.21864028
C        1.10641428       1.38354536       3.29787130
C        7.53478042       7.84637516       0.23472914
C        3.80884609       0.02668708       0.10592795
C        2.36448227       0.72098392       3.51008907
C        3.57995703       1.38727442       3.41651668
C        9.94133334       7.81468117       0.17414338
C        6.28426322       0.03515583       0.18760622
C        4.87584206       0.77555606       3.43403396
C        6.09103581       1.40123519       3.35265642
C       12.42070335       7.84467332       0.04300932
C        8.72982230       0.01887500       0.26820088
C        7.29984620       0.65668883       3.37600687
C        8.47458239       1.43368149       3.25711597
C        1.28808873       1.41865288       0.07422805
C        2.55934447       2.17879283      -0.16388503
C       11.03556461       2.80910222       3.15772520
C        2.36554025       3.54534054       3.18732591
C        3.79547297       1.48723411       0.03943803
C        4.97493408       2.21801591       0.04330019
C        3.58456066       2.77676635       3.27271548
C        4.82845293       3.47189044       3.29653724
C        6.26358286       1.43058545       0.21656011
C        7.50402018       2.09076571       0.17860207
C        6.11541072       2.82143215       3.37614688
C        7.38145840       3.57986928       3.40800750
C        8.72564560       1.41355132       0.24285575
C        9.93370663       2.06973334      -0.07612019
C        8.54453318       2.86542550       3.14945562
C        9.84580276       3.55963360       3.08689490
C        2.58130959       3.57609783      -0.28415830
C        3.83201512       4.25685787      -0.14815538
C       12.17226289       4.93788118       3.12467152
C        3.64157513       5.59504329       3.35486506
C        5.05850547       3.62369500      -0.00803196
C        6.26641761       4.32528430       0.19052971
C        4.85059060       4.91863643       3.38993116
C        5.99881720       5.66985506       3.57269810
C        7.49497560       3.69839831       0.15967777
C        8.72962116       4.33487019       0.15536797
C        7.32924576       4.98701455       3.38542909
C        8.55587316       5.66447150       3.40328357
C        9.95526059       3.54574875      -0.04790481
C       11.20596316       4.33104550      -0.25022413
C        9.77585789       5.01402898       3.14804761
C       10.95054084       5.75257849       3.18258620
C        3.74499470       5.69815326       0.00581050
C        5.02494301       6.37306731       0.07151853
C       13.50749722       6.98964566       3.35327957
C        4.84354070       7.75107629       3.32174729
C        6.20587523       5.71551080       0.11292560
C        7.49197422       6.46935514       0.21346112
C        6.01725343       7.06426121       3.56005166
C        7.24237324       7.78050839       3.56312601
C        8.74887872       5.74184489       0.17246028
C        9.94299475       6.39360471       0.01911164
C        8.50144695       7.06000564       3.52899858
C        9.74629563       7.84033492       3.36250459
C       11.15501062       5.77578498      -0.15340188
C       12.37812885       6.51259124      -0.10068638
C       10.98958841       7.10512598       3.28532741
C       12.28478719       7.75674480       3.30697307
64
Lattice="9.860000170089029 0.0 0.0 4.930000085044514 8.53900664730135 0.0 0.0 0.0 29.999997077512198" Properties=species:S:1:pos:R:3 energy=-16264.519479325538 pbc="T T T"
C        5.02906153       7.81282749       0.27631270
C        1.36276048       0.04332287       0.22548736
C        9.80914426       0.74611213       3.46821365
C        1.12236283       1.45865589       3.39268999
C        7.50873622       7.87784828       0.29338431
C        8.72287692       8.53411510       0.15760619
C        2.35381375       0.75496148       3.55101201
C        3.59413571       1.42166117       3.46123080
C        9.96505256       7.84294585      -0.00559259
C        6.25946729       0.05652837       0.16808835
C        4.83821236       0.70922883       3.48223654
C        6.03028145       1.38276051       3.44224241
C       12.40099518       7.74122220       0.13086981
C        8.71866177       0.00571091       0.14007412
C        7.33365811       0.72972382       3.44084229
C        8.61272395       1.42322496       3.37028511
C        1.33456384       1.40303957      -0.13205695
C        2.52531268       2.09127054      -0.31091341
C       10.98050242       2.80325031       3.16115056
C        2.38822515       3.56051804       2.98117401
C        3.80739568       1.42234841      -0.11684593
C        4.99501002       2.14872378      -0.03107773
C        3.61644593       2.83706813       3.22150363
C        4.88117041       3.53982387       3.37162213
C        6.25362721       1.43771719       0.21713791
C        7.42226401       2.11680005       0.25405572
C        6.06608114       2.80527654       3.39901518
C        7.29893020       3.52843163       3.39661624
C        8.69123223       1.49242244       0.11533045
C        9.95713892       2.16378493      -0.01729740
C        8.49522529       2.86261047       3.44522802
C        9.72957110       3.52969075       3.24409190
C        2.53613600       3.51585914      -0.53262242
C        3.75581703       4.26755400      -0.33400159
C       12.29206781       4.95947557       2.98585258
C        3.62837456       5.73041616       3.20309599
C        4.97297194       3.54896508      -0.08246608
C        6.29827724       4.24441948       0.13646832
C        4.81776173       4.98365130       3.43714873
C        6.02345340       5.72893125       3.60101010
C        7.49394622       3.53603566       0.26237658
C        8.73904830       4.22900929       0.02031752
C        7.30903079       4.96838704       3.59672396
C        8.51351559       5.75586384       3.50794156
C        9.88058095       3.55195759      -0.33512267
C       11.17560816       4.22827866      -0.58775264
C        9.72871624       5.03280833       3.22936007
C       10.99928276       5.70440943       3.02723500
C        3.84233558       5.74467175      -0.18250959
C        5.00966396       6.43512714       0.23395513
C       13.42701891       7.11651132       3.40154131
C        4.82879211       7.82853941       3.64714504
C        6.24410936       5.72894111       0.27523303
C        7.55315157       6.40015076       0.35554273
C        6.07492358       7.11772706       3.74353542
C        7.32565179       7.82922270       3.78504405
C        8.77424259       5.64375958       0.12919460
C        9.95684115       6.41308708      -0.11380215
C        8.57149732       7.10619776       3.63867826
C        9.80205196       7.79277521       3.50610760
C       11.16097000       5.63094355      -0.41466822
C       12.44646062       6.40821920      -0.19139542
C       10.98707411       7.11345374       3.25260897
C       12.21599495       7.82302372       3.40451312
64
Lattice="9.860000170089029 0.0 0.0 4.930000085044514 8.53900664730135 0.0 0.0 0.0 29.999997077512198" Properties=species:S:1:pos:R:3 energy=-16261.669032442853 pbc="T T T"
C        9.80891452       0.04817892      -0.40913972
C        1.23596285       0.69405034      -0.47045906
C        9.84080275       0.03593181       3.83054696
C        1.21211940       0.77174024       3.78763920
C        7.39825097       8.40868703      -0.44479151
C        3.78139092       0.72194330      -0.22554553
C        2.52482264       0.07066268       3.59698426
C        3.64683642       0.74958679       3.62994427
C        9.91111145       8.49967609      -0.33158885
C        6.19489908       0.62254365      -0.38002807
C        4.86093966       0.09357929       3.66886465
C        6.20541379       0.71398332       3.64966822
C        7.46776200       0.01146915      -0.22824816
C        8.66918724       0.73016456      -0.30294752
C        7.38888791       0.08637952       3.65972936
C        8.57342101       0.73972482       3.66973036
C       11.05132877       2.07760754      -0.21008308
C        2.49663191       2.70119733      -0.22868890
C       11.07675081       2.20832748       3.84729319
C        2.53550890       2.85617287       3.78048774
C        3.72332143       2.03313499      -0.23732330
C        4.93820755       2.81071334      -0.27109873
C        3.63188472       2.15790541       3.74885489
C        4.90911266       2.90770025       3.74815483
C        6.17155356       2.14384603      -0.42067001
C        7.41133026       2.78025876      -0.33307869
C        6.14021355       2.15557352       3.58811125
C        7.37529985       2.88510507       3.64333021
C        8.61523332       2.05933400      -0.41819712
C        9.78004247       2.77390202      -0.27492836
C        8.63167684       2.18683958       3.74836879
C        9.83262684       2.91059711       3.86574716
C        2.51105216       4.25205211      -0.06580761
C        3.71963774       4.88375964      -0.10975068
C       12.32166162       4.36170123       3.82907684
C        3.64386265       5.04806767       3.69803941
C        5.02346500       4.14883171      -0.30106426
C        6.19031221       4.91231519      -0.37540866
C        4.96673352       4.29194173       3.71831650
C        6.11402539       5.07384368       3.58499943
C        7.37282203       4.15666548      -0.35669142
C        8.64225761       4.81840855      -0.32751075
C        7.28996648       4.34965034       3.58936248
C        8.65132092       5.07783896       3.66119357
C        9.86193076       4.16024072      -0.23983169
C       11.08437358       4.91709630      -0.12148802
C        9.89415028       4.36031393       3.78437455
C       11.06417340       5.07349070       3.88454920
C        3.70832043       6.38693836      -0.32000631
C        4.94035506       7.04695790      -0.32008420
C       13.54421487       6.43752115       3.68017802
C        4.92791470       7.16117811       3.73118971
C        6.20859955       6.29207431      -0.30940681
C        7.37127302       7.08358583      -0.46302857
C        6.12548074       6.48136561       3.49408727
C        7.33204107       7.16073145       3.47221582
C        8.69240557       6.38750531      -0.37265871
C        9.87226995       7.08061205      -0.25727304
C        8.56093430       6.47948038       3.58279375
C        9.84873019       7.17855340       3.65018981
C       11.07056958       6.35506098      -0.10893525
C       12.34494009       7.17289475      -0.19297992
C       11.11614447       6.39168792       3.79100343
C       12.36262302       7.15608739       3.61371767
64
Lattice="9.860000170089029 0.0 0.0 4.930000085044514 8.53900664730135 0.0 0.0 0.0 29.999997077512198" Properties=species:S:1:pos:R:3 energy=-16263.841325380257 pbc="T T T"
C        5.03194460       7.68342781      -0.34174465
C        6.29057461       8.46146563      -0.25934956
C        9.82560257       0.79939458       3.80462699
C        1.14105641       1.63396669       3.74000159
C        7.48148416       7.78442478      -0.28057419
C        8.70059134       8.39922241      -0.42007643
C        2.36853769       0.91336041       3.69824055
C        3.67483291       1.50108051       3.55869986
C        9.90901226       7.68923338      -0.31223465
C       11.12054400       8.43761035      -0.39979934
C        4.88351511       0.72362936       3.56730073
C        6.04435561       1.48980560       3.67551128
C       12.36660941       7.67715291      -0.35085825
C       13.61979769       8.32972321      -0.33074779
C        7.37207661       0.82989452       3.87032023
C        8.62376124       1.53433139       3.93100360
C        1.34496121       1.29677736      -0.22555046
C        2.51832194       2.00836864      -0.23872638
C       10.98050045       3.01446038       3.81608037
C        2.43299744       3.67620937       3.65017699
C        3.79515745       1.27645985      -0.31608104
C        4.98274123       2.06064144      -0.20573186
C        3.65506065       2.93017513       3.53279073
C        4.90132622       3.64517008       3.57114909
C        6.23023535       1.36501251      -0.35323746
C        7.41291082       2.09987733      -0.31248115
C        6.08743395       2.93769634       3.62541853
C        7.24692659       3.67140459       3.82041976
C        8.66990702       1.29050837      -0.40312808
C        9.92538183       1.94946007      -0.44261344
C        8.52740932       2.97421482       3.91730905
C        9.73993692       3.67779091       4.02318376
C        2.52116063       3.45467390      -0.26169722
C        3.74213628       4.17579388      -0.12976648
C       12.28051781       5.04904085       3.55889015
C        3.60461393       5.79199778       3.61046387
C        4.95174139       3.46700974      -0.27154638
C        6.15667482       4.18736163      -0.29603763
C        4.85362452       5.05808543       3.50706303
C        6.10239355       5.75592103       3.68318137
C        7.40175324       3.53226914      -0.36205921
C        8.69204864       4.14422315      -0.22444516
C        7.35532447       5.08907147       3.65323655
C        8.53642037       5.86412467       3.70208201
C        9.86802621       3.43242974      -0.24278278
C       11.21900892       4.17244641      -0.36286970
C        9.76465002       5.05147430       3.76118285
C       11.02081700       5.76961953       3.56971643
C        3.79626670       5.62686644      -0.13029596
C        5.04058689       6.31536758      -0.24471337
C       13.42067696       7.25150064       3.80755640
C        4.85532636       7.91141468       3.67254539
C        6.29867164       5.66252513      -0.31902918
C        7.56167160       6.23393778      -0.26239432
C        6.07032784       7.22740576       3.66295260
C        7.27502759       7.95501166       3.74665118
C        8.73819443       5.55334930      -0.34157801
C        9.98181160       6.32786414      -0.33141137
C        8.53863690       7.24630147       3.61170919
C        9.78859010       7.89282266       3.57013943
C       11.16759494       5.57766997      -0.43088595
C       12.44553181       6.30857305      -0.17253817
C       11.05969498       7.22825964       3.68206916
C       12.26497845       7.94267088       3.77531223
64
Lattice="9.860000170089029 0.0 0.0 4.930000085044514 8.53900664730135 0.0 0.0 0.0 29.999997077512198" Properties=species:S:1:pos:R:3 energy=-16264.033930548509 pbc="T T T"
C        4.99094475       7.64521538      -0.66725875
C        6.21843687       8.43557229      -0.67983715
C        9.80916694       0.91197902       3.61055458
C        1.16758868       1.58469233       3.72920785
C        7.42805775       7.71357476      -0.63905521
C        8.70738390       8.33085416      -0.41968006
C        2.43686453       0.88557789       3.62949466
C        3.64665303       1.57202223       3.87069491
C        9.95138857       7.64498959      -0.55346350
C       11.18216999       8.36443534      -0.53220534
C        4.87182904       0.84179949       3.87160992
C        6.02417811       1.62027608       3.77957865
C       12.40762208       7.68376305      -0.42117878
C       13.65523453       8.36708768      -0.59804352
C        7.28890357       0.78739595       3.70025298
C        8.54654265       1.59383550       3.70887357
C        1.27841508       1.26664717      -0.35065612
C        2.48962539       1.99466127      -0.11961166
C       11.08089103       2.91816269       4.00150655
C        2.37729238       3.72704062       4.15516972
C        3.74485764       1.25835886      -0.21003477
C        5.03015698       1.98358652      -0.46458743
C        3.61855499       3.03722811       4.03215241
C        4.82827446       3.73210472       3.87569294
C        6.24964673       1.24465740      -0.61310467
C        7.44530486       1.95642025      -0.56976110
C        6.03656227       3.02481043       3.70248922
C        7.35075042       3.70443362       3.75157921
C        8.69895853       1.32536939      -0.52890421
C        9.92235678       2.00704247      -0.29685305
C        8.56554878       3.00018606       3.83044343
C        9.85662213       3.60049344       4.02291064
C        2.55825099       3.41214476       0.12827564
C        3.77683363       4.09919943      -0.12345016
C       12.26578993       5.18618754       4.17289011
C        3.63592633       5.86727987       4.04454939
C        4.99548725       3.35284770      -0.41282638
C        6.27419222       4.10153625      -0.58618884
C        4.86031848       5.18788740       3.87193234
C        6.09096778       5.84409605       3.62868022
C        7.50132248       3.40112029      -0.53502727
C        8.66617797       4.14677985      -0.43688478
C        7.34175218       5.13172188       3.62841203
C        8.57378977       5.81862175       3.71664720
C        9.91523293       3.39992230      -0.20951317
C       11.17714928       4.17861581       0.10571596
C        9.76499808       5.12228882       3.93471491
C       10.97277908       5.90336944       4.07618126
C        3.78285907       5.57715824      -0.32190929
C        4.91833669       6.27118689      -0.55326532
C       13.56002341       7.24773610       3.84901869
C        4.88494679       8.01501469       3.68091456
C        6.14027961       5.51540703      -0.67177759
C        7.43251546       6.26386485      -0.69791349
C        6.12625573       7.31705387       3.49310916
C        7.38558777       7.94474740       3.37699386
C        8.70212359       5.51080833      -0.46079528
C        9.88915816       6.18676064      -0.37133352
C        8.54756907       7.19710795       3.57247329
C        9.79017066       7.95401481       3.79141755
C       11.17322993       5.60980667      -0.02533527
C       12.41756096       6.29638412      -0.18988586
C       10.96474121       7.25866196       3.89706351
C       12.28689920       7.93543167       3.81913993
64
Lattice="9.860000170089029 0.0 0.0 4.930000085044514 8.53900664730135 0.0 0.0 0.0 29.999997077512198" Properties=species:S:1:pos:R:3 energy=-16263.105411054954 pbc="T T T"
C        4.94646037       8.43241906      -0.37152875
C        1.24467121       0.58656056      -0.34910119
C        9.77687248       0.08379521       3.82830874
C        1.21510008       0.82975057       3.79729904
C        7.45222560       8.47250785      -0.36855300
C        3.66836574       0.58916459      -0.17907437
C        2.37194037       0.02317297       3.62372951
C        3.74372374       0.70696990       3.72750207
C        9.85855667       8.47270899      -0.38729095
C        6.16052811       0.66882846      -0.45912894
C        5.03073478       0.07145937       3.73307297
C        6.17292410       0.83508581       3.77901860
C       12.31263084       8.53370887      -0.20887030
C        8.61039502       0.66869239      -0.20593005
C        7.37922413       0.02255081       3.66716577
C        8.59850287       0.79644349       3.69892582
C        1.29885092       2.06689169      -0.29824627
C        2.48703714       2.83858559      -0.34140546
C       11.08849210       2.27263440       3.77640472
C        2.42681522       2.90125082       3.72833721
C        3.70710469       2.10477085      -0.35836072
C        4.93219394       2.74724353      -0.33816251
C        3.69133756       2.09914868       3.76682079
C        4.87411853       2.87723975       3.71856004
C        6.16392783       2.00768633      -0.37523414
C        7.39195043       2.77933882      -0.26311312
C        6.12842395       2.21995143       3.66342982
C        7.36964612       2.87028253       3.61756208
C        8.65173603       2.10332340      -0.35872653
C        9.89698109       2.77174465      -0.24438306
C        8.62955201       2.20241443       3.76701898
C        9.84765151       3.01955307       3.73871289
C        2.45866894       4.20328258      -0.37332031
C        3.68713129       4.95058678      -0.34552103
C       12.29222261       4.24723254       3.83947914
C        3.69095598       4.99590137       3.76819429
C        4.88396473       4.22006331      -0.31259553
C        6.15103588       4.90720869      -0.39893068
C        4.89356443       4.35280751       3.83346256
C        6.19033291       5.07026253       3.64816851
C        7.41984437       4.24285766      -0.29294061
C        8.67114840       4.99678187      -0.33659083
C        7.42134309       4.29762503       3.76084268
C        8.58330664       5.03420747       3.70908655
C        9.86039457       4.18649593      -0.36945519
C       11.13318354       4.89281704      -0.36378471
C        9.82475264       4.40754037       3.76441791
C       11.12022848       5.00112322       3.93773009
C        3.69072526       6.35918443      -0.51211658
C        4.99902403       7.07187412      -0.33177717
C       13.58252393       6.45741173       3.71303252
C        4.91953862       7.17076598       3.82704863
C        6.19763819       6.35675789      -0.19167840
C        7.47167839       6.97730390      -0.31669335
C        6.12085442       6.47692861       3.62946212
C        7.30429503       7.20395474       3.52600015
C        8.66333336       6.34484405      -0.43917920
C        9.94052285       7.03782951      -0.35319408
C        8.53742017       6.46819561       3.71159986
C        9.80911863       7.18801506       3.78602906
C       11.12532808       6.28220938      -0.31428553
C       12.34870858       7.09008554      -0.42480135
C       11.10891216       6.52340372       3.80497702
C       12.32963737       7.17155379       3.69257697
64
Lattice="9.860000170089029 0.0 0.0 4.930000085044514 8.53900664730135 0.0 0.0 0.0 29.999997077512198" Properties=species:S:1:pos:R:3 energy=-16270.251022224957 pbc="T T T"
C        0.00000000       0.00000000       0.00000000
C        1.23250002       0.71158438       0.00000000
C        1.23250002       0.71158438       3.40000019
C        2.46500004       1.42316876       3.40000019
C        2.46500004       0.00000000       0.00000000
C        3.69750006       0.71158438       0.00000000
C        3.69750006       0.71158438       3.40000019
C        4.93000009       1.42316876       3.40000019
C        4.93000009       0.00000000       0.00000000
C        6.16250011       0.71158438       0.00000000
C        6.16250011       0.71158438       3.40000019
C        7.39500013       1.42316876       3.40000019
C        7.39500013       0.00000000       0.00000000
C        8.62750015       0.71158438       0.00000000
C        8.62750015       0.71158438       3.40000019
C        9.86000017       1.42316876       3.40000019
C        1.23250002       2.13475314       0.00000000
C        2.46500004       2.84633654       0.00000000
C        2.46500004       2.84633654       3.40000019
C        3.69750006       3.55792092       3.40000019
C        3.69750006       2.13475314       0.00000000
C        4.93000009       2.84633654       0.00000000
C        4.93000009       2.84633654       3.40000019
C        6.16250011       3.55792092       3.40000019
C        6.16250011       2.13475314       0.00000000
C        7.39500013       2.84633654       0.00000000
C        7.39500013       2.84633654       3.40000019
C        8.62750015       3.55792092       3.40000019
C        8.62750015       2.13475314       0.00000000
C        9.86000017       2.84633654       0.00000000
C        9.86000017       2.84633654       3.40000019
C       11.09250019       3.55792092       3.40000019
C        2.46500004       4.26950530       0.00000000
C        3.69750006       4.98108968       0.00000000
C        3.69750006       4.98108968       3.40000019
C        4.93000009       5.69267406       3.40000019
C        4.93000009       4.26950530       0.00000000
C        6.16250011       4.98108968       0.00000000
C        6.16250011       4.98108968       3.40000019
C        7.39500013       5.69267406       3.40000019
C        7.39500013       4.26950530       0.00000000
C        8.62750015       4.98108968       0.00000000
C        8.62750015       4.98108968       3.40000019
C        9.86000017       5.69267406       3.40000019
C        9.86000017       4.26950530       0.00000000
C       11.09250019       4.98108968       0.00000000
C       11.09250019       4.98108968       3.40000019
C       12.32500021       5.69267406       3.40000019
C        3.69750006       6.40425844       0.00000000
C        4.93000009       7.11584183       0.00000000
C        4.93000009       7.11584183       3.40000019
C        6.16250011       7.82742621       3.40000019
C        6.16250011       6.40425844       0.00000000
C        7.39500013       7.11584183       0.00000000
C        7.39500013       7.11584183       3.40000019
C        8.62750015       7.82742621       3.40000019
C        8.62750015       6.40425844       0.00000000
C        9.86000017       7.11584183       0.00000000
C        9.86000017       7.11584183       3.40000019
C       11.09250019       7.82742621       3.40000019
C       11.09250019       6.40425844       0.00000000
C       12.32500021       7.11584183       0.00000000
C       12.32500021       7.11584183       3.40000019
C       13.55750023       7.82742621       3.40000019
64
Lattice="9.860000170089029 0.0 0.0 4.930000085044514 8.53900664730135 0.0 0.0 0.0 29.999997077512198" Properties=species:S:1:pos:R:3 energy=-16268.80336721538 pbc="T T T"
C        4.95483447       8.49530318      -0.22658280
C        1.26106444       0.66684167      -0.21823927
C        9.86690217       0.06428720       3.66222197
C        1.18883698       0.77656375       3.64390702
C        7.38878636       8.45911008      -0.21701072
C        3.71509721       0.67347647      -0.23555146
C        2.44312070       0.07719296       3.61302747
C        3.68192521       0.71896952       3.66245565
C        9.85545767       8.47096476      -0.27230264
C        6.14655550       0.64752396      -0.27690233
C        4.92288314       0.01429306       3.68497786
C        6.16119267       0.76194532       3.67443851
C       12.30973595       8.46409431      -0.24424601
C        8.64093637       0.64256438      -0.20606119
C        7.39223440       0.06803696       3.63905393
C        8.63029349       0.77640994       3.64957455
C        1.26278797       2.06627840      -0.25141423
C        2.48236942       2.78366736      -0.26305494
C       11.04496119       2.18311644       3.62553094
C        2.45845695       2.85786978       3.65527954
C        3.69341802       2.06681774      -0.24080388
C        4.92847376       2.82076758      -0.26934957
C        3.69102007       2.16645699       3.65641344
C        4.91943608       2.89706032       3.65369504
C        6.16776929       2.11483101      -0.25749292
C        7.41240500       2.82508823      -0.23977943
C        6.15410629       2.19948503       3.64625666
C        7.39321152       2.90509523       3.61900953
C        8.64641656       2.09157719      -0.19446385
C        9.91705013       2.80701683      -0.22594782
C        8.61225363       2.20813915       3.61061078
C        9.83470730       2.90443166       3.61237671
C        2.47562912       4.24868591      -0.33215087
C        3.68346534       4.95879030      -0.34097655
C       12.33367603       4.31404390       3.70118869
C        3.68827702       5.02757662       3.70837466
C        4.91691685       4.22576140      -0.25639846
C        6.16118675       4.95189323      -0.23326000
C        4.93053548       4.29776307       3.68241525
C        6.14670143       4.98356355       3.66368421
C        7.40412457       4.24131556      -0.23466209
C        8.64197660       4.92389576      -0.26845428
C        7.38061340       4.30290506       3.65576959
C        8.60212544       5.05593398       3.66779090
C        9.87775803       4.22933270      -0.26445506
C       11.10362917       4.94104822      -0.31871169
C        9.84512932       4.33321569       3.68083272
C       11.08483700       5.05161136       3.72890614
C        3.72442575       6.36854256      -0.32038592
C        4.93154416       7.04915569      -0.26366528
C       13.53257317       6.43421016       3.67917624
C        4.89881389       7.18130040       3.67776527
C        6.18546996       6.34855535      -0.22032072
C        7.42070120       7.07774378      -0.22270191
C        6.13834902       6.43826854       3.64377489
C        7.37980094       7.16039424       3.59136406
C        8.68355622       6.36161196      -0.28870573
C        9.88832401       7.06479365      -0.30739142
C        8.61615918       6.46707058       3.65133160
C        9.85909798       7.14005010       3.70994536
C       11.11702004       6.35257133      -0.31971346
C       12.35074467       7.05867552      -0.31076157
C       11.06811345       6.43184474       3.71429657
C       12.31003076       7.16559145       3.67647263
64
Lattice="9.860000170089029 0.0 0.0 4.930000085044514 8.53900664730135 0.0 0.0 0.0 29.999997077512198" Properties=species:S:1:pos:R:3 energy=-16267.039068842249 pbc="T T T"
C        9.90281525       0.28799384      -0.13493509
C        1.23320205       1.01050803      -0.09918766
C        1.15332422       0.36854709       3.71647662
C        2.41427527       1.06953492       3.66273075
C        2.51280625       0.35030411      -0.13333481
C        3.78023434       1.02572793      -0.29000726
C        3.63217756       0.35532778       3.71047089
C        4.89100773       1.10358348       3.54913566
C        5.03026347       0.31773653      -0.13414925
C        6.23958756       1.08736871      -0.15939676
C        6.13029932       0.43156432       3.61805311
C        7.37960078       1.08586604       3.67580511
C        7.45973201       0.39593028      -0.18065197
C        8.68721231       1.06230261      -0.15253026
C        8.55856494       0.37493341       3.60707006
C        9.80055423       1.10467301       3.70296645
C       11.08408370       2.45136268      -0.24793956
C        2.46740095       3.19487472      -0.34448178
C        2.47459579       2.54799265       3.61291901
C        3.64691333       3.24907712       3.55606625
C        3.75288960       2.50830714      -0.36780364
C        4.96012929       3.14676187      -0.20642403
C        4.89214459       2.50380210       3.53606031
C        6.11730877       3.15615549       3.55929737
C        6.22379973       2.47892039      -0.14932379
C        7.41732514       3.18117425      -0.10239512
C        7.36098313       2.48577605       3.67569763
C        8.58598856       3.25235359       3.60650212
C        8.61614734       2.46589829      -0.18113511
C        9.87678781       3.17240181      -0.26341089
C        9.82283783       2.56993214       3.55685308
C       11.10087232       3.21200943       3.51042924
C       12.39376878       4.57810950      -0.30486332
C        3.74924732       5.31417823      -0.25875303
C        3.62445718       4.64742135       3.49045682
C        4.89460761       5.33800492       3.60206019
C        4.96706974       4.60199436      -0.19514222
C        6.19572929       5.31437642      -0.10297488
C        6.08717562       4.64089601       3.61699711
C        7.35869561       5.40272202       3.66649628
C        7.44923111       4.61490110      -0.15052375
C        8.65641460       5.30250991      -0.21712115
C        8.61317554       4.69199053       3.52637483
C        9.82353099       5.37017218       3.50581772
C        9.92725129       4.58982515      -0.20252736
C       11.14879783       5.28675560      -0.31464049
C       11.07317755       4.64417840       3.51191908
C       12.30822145       5.39949188       3.54640542
C       13.55637225       6.71229174      -0.24995692
C        4.94795120       7.44243659      -0.18780540
C        4.95511844       6.71229667       3.62781451
C        6.09997883       7.47557605       3.61747433
C        6.18306018       6.74196837      -0.11734682
C        7.42364244       7.43922617      -0.08718311
C        7.34854375       6.78147148       3.67185125
C        8.58025004       7.44827864       3.71641154
C        8.60512781       6.73387233      -0.22810026
C        9.88924592       7.45558983      -0.13845018
C        9.81734285       6.76048940       3.50895024
C       11.04741238       7.50302925       3.49149607
C       11.12696286       6.75739829      -0.27790903
C       12.36197719       7.47024376      -0.18000416
C       12.29388600       6.79551705       3.62546487
C       13.56672229       7.50173069       3.57788840
64
Lattice="9.860000170089029 0.0 0.0 4.930000085044514 8.53900664730135 0.0 0.0 0.0 29.999997077512198" Properties=species:S:1:pos:R:3 energy=-16268.347132037678 pbc="T T T"
C        9.88223940       0.33660562      -0.13402698
C        1.27337958       1.04849664      -0.13245924
C        1.19399376       0.36099531       3.65306104
C        2.39918651       1.09292482       3.66497192
C        2.49658360       0.33385270      -0.14814059
C        3.76555674       1.04534834      -0.31287457
C        3.63122410       0.38752167       3.70350382
C        4.84894694       1.06773252       3.58345733
C        5.01739222       0.37047866      -0.19815544
C        6.24219849       1.07860415      -0.15777085
C        6.09419989       0.33561173       3.56976179
C        7.35083521       1.08219516       3.59754333
C        7.44021119       0.33404990      -0.20332799
C        8.66928486       1.02163702      -0.19493911
C        8.62813513       0.38182259       3.63487033
C        9.84226302       1.12570242       3.61032484
C       11.10823675       2.44609349      -0.16602071
C        2.49246014       3.15247968      -0.23401527
C        2.42356438       2.49038560       3.63326315
C        3.67919103       3.22612402       3.55404791
C        3.71731373       2.42624235      -0.29690728
C        4.97655408       3.16670372      -0.19678983
C        4.88634691       2.51541422       3.55228297
C        6.13913979       3.21342138       3.58836860
C        6.20200518       2.49678770      -0.18834671
C        7.43975072       3.20601652      -0.15843936
C        7.38412652       2.51469149       3.64129017
C        8.56522636       3.25920235       3.56681661
C        8.66760767       2.47936902      -0.18899057
C        9.88289410       3.17101747      -0.21404286
C        9.80575637       2.52282500       3.56441471
C       11.07041379       3.23769177       3.59304914
C       12.36734891       4.60262639      -0.21464037
C        3.72644311       5.33449870      -0.18410494
C        3.68977377       4.64885204       3.58891681
C        4.88796690       5.31102599       3.59399077
C        4.95739708       4.60915962      -0.17756776
C        6.19320316       5.34484875      -0.16811004
C        6.12416147       4.58381647       3.56284697
C        7.32108464       5.29771992       3.64165105
C        7.43268899       4.58231775      -0.19673461
C        8.68145999       5.28342489      -0.25094292
C        8.57053400       4.66540205       3.51331723
C        9.85558881       5.36733448       3.55305205
C        9.91374013       4.61702100      -0.20325010
C       11.15147680       5.32955391      -0.24440377
C       11.08229411       4.64957675       3.57242103
C       12.31167048       5.36393968       3.58089274
C       13.57983313       6.76741407      -0.18054252
C        4.92695334       7.44941352      -0.19118836
C        4.86555217       6.75784987       3.60605349
C        6.10299106       7.48180264       3.58586909
C        6.20362617       6.77505952      -0.23710145
C        7.43682428       7.47167149      -0.17340684
C        7.32104717       6.76591240       3.68338547
C        8.58584362       7.48649304       3.67258877
C        8.68327521       6.71600108      -0.24864061
C        9.88996077       7.47191602      -0.19837433
C        9.83762389       6.80095878       3.58781348
C       11.05203475       7.48991446       3.56041451
C       11.13306719       6.77418888      -0.25083939
C       12.34839208       7.47556619      -0.19533449
C       12.29136972       6.79743778       3.63294467
C       13.53856706       7.47688151       3.59325127
64
Lattice="9.860000170089029 0.0 0.0 4.930000085044514 8.53900664730135 0.0 0.0 0.0 29.999997077512198" Properties=species:S:1:pos:R:3 energy=-16267.8395161889 pbc="T T T"
C        9.85273434       0.38322271      -0.26095575
C        1.23130795       1.08183034      -0.11665662
C        1.17196849       0.31015419       3.35312477
C        2.42428613       1.06783605       3.43166263
C        2.51069621       0.37540965      -0.23225921
C        3.72276533       1.08236278      -0.16749872
C        3.65363391       0.32520154       3.51007132
C        4.88077403       1.03813378       3.46467292
C        4.98968464       0.41821388      -0.21099414
C        6.23866762       1.12981108      -0.22687959
C        6.11749414       0.34222089       3.54285188
C        7.36616160       1.01088863       3.48013340
C        7.43844526       0.39243392      -0.25590842
C        8.64400086       1.09465623      -0.27445212
C        8.60522542       0.34342775       3.41692193
C        9.82398652       1.02874410       3.36137069
C       11.11241049       2.51317502       0.09665857
C        2.50455146       3.19990530       0.10338013
C        2.43252909       2.49746409       3.65391196
C        3.69853635       3.18454243       3.68539889
C        3.74306017       2.48181233      -0.02633113
C        4.96852409       3.25340861      -0.08285260
C        4.88282886       2.45561135       3.54612638
C        6.12901850       3.15620380       3.53839812
C        6.23741442       2.54122277      -0.20159362
C        7.43560361       3.19226084      -0.26512752
C        7.34695629       2.44677087       3.46268022
C        8.59823567       3.20219084       3.54988403
C        8.68377018       2.48678374      -0.22838028
C        9.88464228       3.21490236      -0.08654122
C        9.83926360       2.48929903       3.51257773
C       11.05150921       3.21103625       3.67257990
C       12.36134713       4.67742435       0.21101978
C        3.73042458       5.35983299       0.09826772
C        3.65962386       4.57942581       3.68448585
C        4.87459379       5.31388144       3.55317924
C        4.96905062       4.65365583      -0.11066568
C        6.15215204       5.36984582      -0.28237956
C        6.13117094       4.56887166       3.54199702
C        7.33564588       5.31157223       3.47864750
C        7.39650476       4.66693725      -0.34468096
C        8.66465953       5.33649634      -0.22503084
C        8.59027175       4.62216496       3.54285582
C        9.84857539       5.31005182       3.69573315
C        9.88389391       4.63259093      -0.02636761
C       11.15126875       5.39896536       0.09020323
C       11.07624598       4.60488433       3.80101922
C       12.31443029       5.28575579       3.81302180
C       13.60890929       6.80897891      -0.10295911
C        4.98177396       7.50073483      -0.28816245
C        4.87732008       6.72831227       3.46652167
C        6.13794378       7.39136277       3.32600878
C        6.20259777       6.80367127      -0.32870677
C        7.43914926       7.50319194      -0.37480917
C        7.34625820       6.70739625       3.40065095
C        8.53645094       7.44528416       3.55869591
C        8.68094431       6.76938706      -0.28483568
C        9.90527039       7.47910593      -0.17279453
C        9.79039448       6.73609674       3.63113240
C       11.07559621       7.44645552       3.60374329
C       11.10621151       6.78392070      -0.03822821
C       12.37071512       7.52951617      -0.10369072
C       12.32849460       6.72140436       3.74099450
C       13.53143434       7.47933172       3.49916320
64
Lattice="9.860000170089029 0.0 0.0 4.930000085044514 8.53900664730135 0.0 0.0 0.0 29.999997077512198" Properties=species:S:1:pos:R:3 energy=-16267.836330280077 pbc="T T T"
C        9.91956345       0.39542052      -0.22942446
C        1.29179313       1.07912575      -0.09431189
C        1.20148243       0.34353818       3.37782407
C        2.43113686       1.03156209       3.45290304
C        2.49605510       0.38089575      -0.18452892
C        3.74804045       1.10292680      -0.19924300
C        3.63628721       0.32071327       3.46409118
C        4.87129857       1.06523695       3.46786855
C        4.95507702       0.37009018      -0.13878936
C        6.18256028       1.08506344      -0.23169423
C        6.10740243       0.34226526       3.47996282
C        7.35583128       1.03883483       3.51747322
C        7.42327762       0.39774353      -0.24401824
C        8.66935289       1.08662526      -0.25109181
C        8.58399586       0.30484557       3.38506722
C        9.83804589       1.08452410       3.41865729
C       11.11403049       2.49627005      -0.00519523
C        2.50436609       3.23680832       0.09052663
C        2.43380793       2.45402290       3.61233826
C        3.64622215       3.16418942       3.69765191
C        3.71717076       2.53876665      -0.05149484
C        4.95267611       3.21684379      -0.07222056
C        4.92651359       2.46523767       3.50533852
C        6.13492267       3.14101053       3.50744067
C        6.15291717       2.49595157      -0.16473102
C        7.44213290       3.22336421      -0.20798684
C        7.39231229       2.43464012       3.55546676
C        8.60661470       3.15992102       3.53023502
C        8.63934497       2.51357435      -0.19680758
C        9.90705801       3.24887992      -0.07337911
C        9.83740598       2.46311974       3.49924208
C       11.07316572       3.16566644       3.61337060
C       12.35297402       4.62835409       0.12137069
C        3.72606153       5.41290148       0.02107476
C        3.67609696       4.59907580       3.64959427
C        4.91603044       5.27175755       3.55556240
C        4.94882578       4.68986570      -0.09575243
C        6.24054004       5.39622526      -0.25527442
C        6.09924032       4.59723888       3.51257675
C        7.34024656       5.28970374       3.48074571
C        7.45838908       4.60788867      -0.26211923
C        8.66819434       5.36335597      -0.23585022
C        8.58263715       4.59332348       3.55754722
C        9.80157178       5.30248723       3.62163032
C        9.93712016       4.68316780      -0.03710417
C       11.10478181       5.35075193       0.04487779
C       11.05758396       4.59507067       3.73968016
C       12.31177006       5.32411711       3.76270227
C       13.56583588       6.80764189      -0.07854279
C        4.93931976       7.53133238      -0.29590847
C        4.91969047       6.70712412       3.43995686
C        6.09450653       7.47068450       3.33001096
C        6.20012587       6.80887735      -0.25854202
C        7.43268012       7.50060270      -0.27544699
C        7.34513712       6.72983860       3.44245637
C        8.60306017       7.41198299       3.57482194
C        8.65040986       6.79907059      -0.24991551
C        9.89699883       7.55042725      -0.12112517
C        9.84589347       6.73145564       3.57055848
C       11.05743803       7.42540048       3.61697837
C       11.16325457       6.81145968      -0.02167031
C       12.33793653       7.48736664      -0.09299361
C       12.29773140       6.73285675       3.69528649
C       13.51606457       7.41856356       3.51227306
64
Lattice="9.860000170089029 0.0 0.0 4.930000085044514 8.53900664730135 0.0 0.0 0.0 29.999997077512198" Properties=species:S:1:pos:R:3 energy=-16268.89206408166 pbc="T T T"
C        9.87738927       0.40497190      -0.11038467
C        1.21736098       1.13123092      -0.16659259
C        1.24782246       0.27550615       3.51047361
C        2.42699862       1.02203635       3.47664395
C        2.45506116       0.41434383      -0.05113692
C        3.71253558       1.10921157      -0.02971212
C        3.67479051       0.32301361       3.46232624
C        4.92099889       1.01821264       3.46422824
C        4.98817113       0.43375423      -0.07180644
C        6.19952243       1.14104951      -0.07753806
C        6.13665705       0.27436239       3.50976665
C        7.36018545       1.02351436       3.52838331
C        7.40338803       0.38151397      -0.07749270
C        8.64137711       1.09432395      -0.09889975
C        8.59884009       0.32918301       3.55470557
C        9.84717625       0.98301342       3.50374021
C       11.12030736       2.55256966      -0.14981087
C        2.48271452       3.27886220      -0.21897384
C        2.44488268       2.44542696       3.48129688
C        3.68146770       3.16342822       3.48294745
C        3.74378981       2.53930007      -0.10697706
C        4.97716244       3.22063003      -0.10667830
C        4.88648297       2.47151257       3.50387825
C        6.15504890       3.18359488       3.53912874
C        6.22288965       2.55402007      -0.08328939
C        7.42196427       3.25908896      -0.04588351
C        7.36436314       2.45878627       3.51183429
C        8.57616800       3.14050865       3.56700592
C        8.65719847       2.54619616      -0.07070212
C        9.87323821       3.24883357      -0.15561348
C        9.80487883       2.43432460       3.51376488
C       11.05629033       3.11456108       3.46127122
C       12.36418583       4.69241056      -0.17998149
C        3.73908659       5.40128344      -0.16676021
C        3.69648054       4.56955003       3.52494020
C        4.88240093       5.31802560       3.47594586
C        4.94952091       4.67231687      -0.11052469
C        6.18461510       5.38770524      -0.02262180
C        6.11079920       4.57907972       3.49938604
C        7.37801135       5.29157319       3.52113917
C        7.41491043       4.64522948      -0.03719192
C        8.63201899       5.35332933      -0.04177090
C        8.60665216       4.57081211       3.50030992
C        9.84855764       5.30305319       3.48050118
C        9.85953478       4.67986766      -0.12101375
C       11.14824567       5.38999078      -0.13458999
C       11.06599355       4.55952734       3.43309627
C       12.30537585       5.25707108       3.48402909
C       13.61657840       6.81807278      -0.15693373
C        4.95628290       7.53233415      -0.07382281
C        4.87704005       6.71212511       3.47599615
C        6.12792799       7.39744344       3.51025965
C        6.19398210       6.83589375      -0.04436901
C        7.42749573       7.52840199      -0.02615266
C        7.36659445       6.69381608       3.48238641
C        8.61741041       7.44026640       3.43177405
C        8.64391015       6.78795443      -0.00124433
C        9.87712896       7.53288533      -0.03257152
C        9.84681242       6.69243173       3.46944713
C       11.05884505       7.41207173       3.45198113
C       11.10868045       6.83293772      -0.06294131
C       12.37712609       7.52799477      -0.10211312
C       12.28440462       6.69382495       3.46987802
C       13.53627264       7.39747795       3.45363465
64
Lattice="9.860000170089029 0.0 0.0 4.930000085044514 8.53900664730135 0.0 0.0 0.0 29.999997077512198" Properties=species:S:1:pos:R:3 energy=-16268.230629899079 pbc="T T T"
C        9.91601385       0.42271891      -0.04875376
C        1.27431825       1.11488402      -0.03741771
C        1.20017302       0.30555056       3.53897197
C        2.42110431       0.98898267       3.46069343
C        2.50158360       0.40112847      -0.04794228
C        3.73581800       1.12604061      -0.06933947
C        3.66808571       0.26378261       3.46692495
C        4.91668810       0.99141316       3.50687274
C        4.94997053       0.37130000       0.04870939
C        6.15207907       1.10675150       0.02609548
C        6.15758292       0.33308855       3.47415134
C        7.39157082       1.00621105       3.52495105
C        7.42724134       0.44887947      -0.00672156
C        8.66835013       1.14561764      -0.01503453
C        8.57972253       0.31922046       3.50623085
C        9.80357238       1.01485925       3.59524200
C       11.12382245       2.52627206      -0.24284589
C        2.47958495       3.27070601      -0.23857059
C        2.44148197       2.45320058       3.41008204
C        3.65943553       3.12133194       3.41682431
C        3.74579434       2.57145649      -0.18119229
C        4.93007404       3.25076811      -0.10813265
C        4.88022385       2.39008771       3.48754221
C        6.13372764       3.09320530       3.50128705
C        6.15762631       2.54673254       0.00591304
C        7.42635986       3.29248675      -0.01662396
C        7.38785459       2.40622261       3.53688263
C        8.61970976       3.11830393       3.45893243
C        8.65512294       2.57976847      -0.08632825
C        9.89958018       3.26227177      -0.15211318
C        9.86370753       2.46001384       3.51081181
C       11.08839745       3.16170765       3.43987305
C       12.31042516       4.64671932      -0.29819894
C        3.69744682       5.37809174      -0.17645062
C        3.65607229       4.53035554       3.29577210
C        4.91013317       5.26766269       3.49547162
C        4.92646330       4.69869040      -0.12123363
C        6.16927787       5.40885395       0.00248472
C        6.13695186       4.54469396       3.57478645
C        7.40150477       5.31762529       3.47436136
C        7.43794141       4.71419328       0.05937495
C        8.66879975       5.44626575       0.08225114
C        8.61681191       4.56262239       3.49002101
C        9.82161618       5.29671025       3.39509484
C        9.88008893       4.70594539      -0.09467474
C       11.10370805       5.35674286      -0.23663902
C       11.05803653       4.59188392       3.41189135
C       12.30041430       5.28432215       3.29183402
C       13.55533301       6.78943047      -0.08247496
C        4.93947555       7.53426178      -0.05061138
C        4.93739607       6.69575652       3.54940976
C        6.14297435       7.42222359       3.52535629
C        6.19406887       6.81693593       0.06930496
C        7.41769588       7.51642307       0.07445779
C        7.37089341       6.68658475       3.47520439
C        8.58828989       7.39341661       3.49443829
C        8.65500363       6.87011781       0.06520615
C        9.90795822       7.54772167      -0.01675214
C        9.81946571       6.68333194       3.36801534
C       11.06789850       7.42829538       3.39510470
C       11.11017819       6.81816054      -0.17775017
C       12.33970049       7.53606222      -0.10985618
C       12.31699488       6.71418782       3.37211316
C       13.56461422       7.40838804       3.53671304
64
Lattice="9.860000170089029 0.0 0.0 4.930000085044514 8.53900664730135 0.0 0.0 0.0 29.999997077512198" Properties=species:S:1:pos:R:3 energy=-16265.848155552412 pbc="T T T"
C        4.96185183       8.47818524      -0.03289789
C        1.26070357       0.64576494       0.01960661
C        1.18147255       0.80936009       3.42835854
C        2.46357527       1.49809096       3.46286854
C        7.43591124       8.51575184      -0.10054242
C        3.72992960       0.68042875      -0.07784667
C        3.69918711       0.76651543       3.60404501
C        4.90059954       1.51014481       3.57839323
C        9.86611929       8.47651988      -0.17301441
C        6.16213824       0.56395158      -0.17853108
C        6.12711947       0.78453063       3.54378759
C        7.39058383       1.52836806       3.62457649
C       12.37859030       8.41346222      -0.18332403
C        8.67165816       0.65521082      -0.08044183
C        8.62548279       0.75599974       3.61779971
C        9.80190505       1.46767089       3.47206496
C        1.26416640       2.07913288      -0.11322337
C        2.47101366       2.75241313      -0.29870180
C        2.44445082       2.85204252       3.47863665
C        3.69572724       3.60928166       3.48766348
C        3.72313212       2.08281460      -0.27549136
C        4.94596638       2.75980813      -0.17427945
C        4.90431380       2.89893569       3.55802839
C        6.12606839       3.73621831       3.56485151
C        6.18155258       2.04807092      -0.01139619
C        7.41047441       2.80745461       0.01020806
C        7.36250748       2.98241144       3.57597951
C        8.60965749       3.57483476       3.54014925
C        8.68081021       2.07640067      -0.13148507
C        9.84601080       2.82130199      -0.11798673
C        9.86430603       2.84990684       3.56223467
C       11.07853449       3.57338830       3.50479523
C        2.47377051       4.24650980      -0.41029827
C        3.73518696       4.91597029      -0.28917704
C        3.64368615       5.11714585       3.50238446
C        4.92648894       5.74303204       3.55157305
C        4.99911770       4.17398359      -0.21697325
C        6.21840828       4.90194937      -0.21813673
C        6.17417730       5.08252443       3.62576955
C        7.39637560       5.75452781       3.57457248
C        7.40164873       4.21503274      -0.02946168
C        8.66348422       4.92016966      -0.08888199
C        8.57083276       4.99647916       3.64165795
C        9.85259827       5.70192569       3.56426484
C        9.86049711       4.19876571      -0.29892858
C       11.11958956       4.94294331      -0.43458148
C       11.09354141       5.03436523       3.48705216
C       12.23469444       5.81631057       3.52870968
C        3.66601215       6.34403651      -0.29573986
C        4.94352406       7.01394070      -0.07722056
C        4.90556109       7.17612489       3.61055951
C        6.17552911       7.93192249       3.59757586
C        6.15349595       6.32709999      -0.03178174
C        7.37922709       7.07643141      -0.04667921
C        7.39167139       7.17568414       3.66351955
C        8.64663545       7.91106070       3.74135537
C        8.62921480       6.40504329      -0.11450615
C        9.90156697       7.03326926      -0.21626431
C        9.87724038       7.14589906       3.71003015
C       11.05072633       7.90414884       3.59903712
C       11.07930850       6.28779409      -0.37630789
C       12.33569535       7.07091474      -0.38566602
C       12.27315042       7.21089026       3.56474009
C       13.52182971       7.80342105       3.68291614
64
Lattice="9.860000170089029 0.0 0.0 4.930000085044514 8.53900664730135 0.0 0.0 0.0 29.999997077512198" Properties=species:S:1:pos:R:3 energy=-16267.91253154283 pbc="T T T"
C        9.85362075       0.52415367      -0.18125047
C        1.23908749       1.26276825      -0.15136283
C        1.24790923       0.21062045       3.25887894
C        2.48095155       0.82153916       3.38038668
C        2.47584111       0.58148069      -0.10776882
C        3.66410326       1.24891199      -0.03499413
C        3.69319913       0.17227885       3.31129865
C        4.93150176       0.85197205       3.38690907
C        4.86836227       0.52960132      -0.04323807
C        6.12947404       1.26977279      -0.06634203
C        6.15582883       0.15591421       3.35058976
C        7.42746615       0.85843331       3.31487881
C        7.34911464       0.55688788      -0.09566665
C        8.58998679       1.25836083      -0.18582354
C        8.70147184       0.16829245       3.38472311
C        9.90317317       0.92138349       3.35754501
C       11.06507559       2.69240123      -0.03256659
C        2.43532243       3.39677893       0.13795619
C        2.49380801       2.27912031       3.54166769
C        3.75630017       3.02546710       3.53992839
C        3.68139474       2.64772951       0.08152741
C        4.83494771       3.37413446       0.01323804
C        4.99781717       2.26612877       3.49500130
C        6.19976795       2.96644317       3.45622290
C        6.10758779       2.71066096      -0.09062622
C        7.35684981       3.41215264      -0.08518646
C        7.43213880       2.30112092       3.40545376
C        8.69500171       3.00951757       3.40886729
C        8.58194991       2.68681849      -0.10658562
C        9.83172070       3.40092210       0.01563007
C        9.89118636       2.31957983       3.47266149
C       11.12194905       2.99317166       3.58221103
C       12.25613403       4.81500389       0.13652748
C        3.64677924       5.54619587       0.02334947
C        3.72680990       4.45171415       3.65124582
C        5.00609365       5.12339216       3.43418876
C        4.89824398       4.83762372       0.00352889
C        6.12898794       5.55450686      -0.12595953
C        6.21070170       4.37934471       3.36924192
C        7.39019436       5.14823147       3.33493307
C        7.35764650       4.84727074      -0.01087065
C        8.62672417       5.49577084       0.03410968
C        8.66059524       4.46556943       3.45987603
C        9.89226012       5.14157104       3.55026068
C        9.89071111       4.82429004       0.06099593
C       11.07049859       5.54440529       0.10641011
C       11.14304650       4.42203851       3.62085138
C       12.34269891       5.19112346       3.61775928
C       13.47780678       6.95599742      -0.00624237
C        4.90348556       7.63633546      -0.12210033
C        4.94897270       6.53470722       3.36623758
C        6.19479259       7.29014790       3.25756165
C        6.16012976       6.96263813      -0.17398759
C        7.36079776       7.67739053      -0.08995475
C        7.46349952       6.54146034       3.29248872
C        8.66267176       7.29520904       3.24523369
C        8.56666099       6.92307291       0.00910177
C        9.83135391       7.64544117      -0.00887992
C        9.88948157       6.56942527       3.50713008
C       11.13940027       7.27008773       3.49483861
C       11.05826528       6.96191244       0.09072186
C       12.25112416       7.68426492       0.02266715
C       12.35214578       6.58231426       3.49478536
C       13.57738391       7.28467166       3.43979023
64
Lattice="9.860000170089029 0.0 0.0 4.930000085044514 8.53900664730135 0.0 0.0 0.0 29.999997077512198" Properties=species:S:1:pos:R:3 energy=-16267.891243396945 pbc="T T T"
C        4.95021802       8.48730869      -0.17201658
C        1.24610485       0.67630826      -0.14795620
C        9.85950520       0.03936013       3.60462971
C        1.21342289       0.73300129       3.59109489
C        7.38804981       8.48096871      -0.19137077
C        3.74481722       0.68151434      -0.29566098
C        2.45868471       0.04258337       3.70054582
C        3.67806403       0.77744622       3.66876014
C        9.90742184       8.48227812      -0.29598833
C        6.22272597       0.67290952      -0.23328169
C        4.91964906       0.09885439       3.70666296
C        6.13772094       0.76369251       3.67984278
C       12.34863858       8.53633163      -0.34737964
C        8.65828800       0.66512998      -0.23883385
C        7.33574941       0.02959282       3.73663342
C        8.59794776       0.73399419       3.63826611
C        1.21264888       2.07743893      -0.25374316
C        2.46649186       2.80053881      -0.35492747
C       11.11796068       2.19285615       3.61925800
C        2.44181228       2.93419998       3.66416833
C        3.71032792       2.09646282      -0.33366241
C        4.99270180       2.77537806      -0.28392166
C        3.67275541       2.24087139       3.67025984
C        4.91154315       2.88446516       3.70596586
C        6.19421578       2.05215888      -0.20941260
C        7.39127403       2.75435752      -0.18951512
C        6.13286095       2.16808290       3.70449573
C        7.37577116       2.91063754       3.68078736
C        8.59470875       2.08227329      -0.19605131
C        9.87112126       2.78025383      -0.26580687
C        8.59965945       2.19342902       3.63341795
C        9.88087675       2.87282148       3.64020459
C        2.51315037       4.19290690      -0.44512182
C        3.73268153       4.91318188      -0.41176347
C       12.30205008       4.32693980       3.68736201
C        3.65143118       5.05370168       3.71597080
C        4.96799067       4.19095265      -0.34459320
C        6.20118680       4.92279735      -0.23779855
C        4.90027613       4.35372547       3.70199228
C        6.15043935       5.06913948       3.71448687
C        7.44533740       4.17846890      -0.21902511
C        8.62660289       4.92807739      -0.26367119
C        7.39129671       4.32071518       3.67904510
C        8.60240743       5.02192881       3.68602500
C        9.86511850       4.21830724      -0.35425600
C       11.09919020       4.87731120      -0.45593627
C        9.84056710       4.29095277       3.66377492
C       11.08165222       5.04893141       3.65778103
C        3.72804733       6.33935400      -0.34465828
C        4.90877841       7.06041680      -0.25052880
C       13.57461917       6.44234367       3.75343091
C        4.90718602       7.17592769       3.66104863
C        6.17619367       6.34766697      -0.26405475
C        7.39686268       7.07903839      -0.20297008
C        6.15664524       6.50727079       3.73816073
C        7.39809420       7.13493671       3.78736016
C        8.62485668       6.33435794      -0.23301448
C        9.82627207       7.07320127      -0.33789136
C        8.60730785       6.44142669       3.73975214
C        9.83165464       7.20838976       3.71946617
C       11.09032310       6.36921501      -0.47584558
C       12.33851926       7.06943673      -0.41099340
C       11.05617694       6.47372510       3.73191639
C       12.33335656       7.18074824       3.77908861
64
Lattice="9.860000170089029 0.0 0.0 4.930000085044514 8.53900664730135 0.0 0.0 0.0 29.999997077512198" Properties=species:S:1:pos:R:3 energy=-16265.68281061246 pbc="T T T"
C        4.96593880       8.41645769      -0.00076612
C        1.26964560       0.65635951      -0.00081345
C        1.23561381       0.76819952       3.42019150
C        2.44486296       1.45470499       3.45375199
C        7.40835254       8.48978750      -0.05119805
C        3.71177143       0.62059137      -0.04753703
C        3.66934878       0.81158450       3.61668553
C        4.94057592       1.50535285       3.60768828
C        9.84870554       8.41255708      -0.15933267
C        6.20045815       0.62607353      -0.20753821
C        6.14713527       0.79425654       3.57538889
C        7.33862755       1.51981747       3.68313897
C       12.33735183       8.42064326      -0.15487990
C        8.64448400       0.59013777      -0.05785848
C        8.58200709       0.76490726       3.64931030
C        9.85978818       1.47571467       3.47462561
C        1.26556060       2.08701496      -0.10188240
C        2.50835151       2.82014246      -0.38411405
C        2.43939362       2.95669656       3.41471131
C        3.62043430       3.66963570       3.45043903
C        3.71519186       2.04157713      -0.27353317
C        4.94981474       2.76705227      -0.19936920
C        4.94181039       2.97809276       3.55908144
C        6.14295266       3.63279677       3.57106627
C        6.17194894       2.00610676      -0.00678072
C        7.45376474       2.76421259       0.04719982
C        7.35187446       2.94705446       3.57177126
C        8.63391408       3.61640748       3.58173380
C        8.66033099       2.07010211      -0.09413638
C        9.94906259       2.77837550      -0.14962452
C        9.81914033       2.90396528       3.55380535
C       11.04251393       3.62373444       3.43931202
C        2.48149385       4.16603051      -0.47933996
C        3.71154366       4.89709924      -0.33784009
C        3.65728310       5.04328360       3.46533946
C        4.91524558       5.82528021       3.57144982
C        4.92416789       4.22446383      -0.23683425
C        6.15234233       4.91640314      -0.22383285
C        6.13085444       5.11135310       3.63172203
C        7.40723047       5.76408314       3.65165796
C        7.43854583       4.24665179       0.00617630
C        8.65470488       4.97991042      -0.07972303
C        8.66465953       5.02226997       3.65007642
C        9.82469151       5.73622666       3.60408346
C        9.89391463       4.25514125      -0.30547661
C       11.07667884       4.90161117      -0.51955595
C       11.02005581       5.00760617       3.40931987
C       12.29912560       5.74771751       3.50249391
C        3.74403631       6.30192544      -0.36929743
C        4.93748284       7.04894567      -0.04715841
C        4.91304187       7.21822709       3.62313989
C        6.13742120       7.89321115       3.65436355
C        6.18699432       6.31498205       0.02842934
C        7.42218316       7.05537735      -0.01367779
C        7.42552669       7.18420811       3.70042553
C        8.61670542       7.89996426       3.75906492
C        8.65130022       6.32366871      -0.13298971
C        9.87613310       7.04126572      -0.22062243
C        9.83511057       7.16628855       3.74609507
C       11.06725169       7.89971382       3.59978155
C       11.12659213       6.37322310      -0.39900956
C       12.33066380       6.93952235      -0.44992068
C       12.26933953       7.18718288       3.56453993
C       13.49696476       7.95073833       3.66658403
64
Lattice="9.860000170089029 0.0 0.0 4.930000085044514 8.53900664730135 0.0 0.0 0.0 29.999997077512198" Properties=species:S:1:pos:R:3 energy=-16266.690035496367 pbc="T T T"
C        4.94009278       8.48315665       0.02153030
C        1.23272976       0.64610018      -0.03232897
C        1.24758286       0.71426236       3.49732727
C        2.44560838       1.54290663       3.45084033
C        7.36731621       8.40561465       0.04344612
C        3.72547288       0.61488341      -0.10576526
C        3.70070949       0.80555314       3.63034459
C        4.89819271       1.55135764       3.61440491
C        9.90909311       8.47924617      -0.14576235
C        6.18267465       0.63178641      -0.14886135
C        6.13420979       0.78742553       3.67441978
C        7.35867589       1.49729624       3.66247439
C       12.33232323       8.42275626      -0.20650883
C        8.63072338       0.59369230      -0.04938381
C        8.58090376       0.88331206       3.65654951
C        9.84319281       1.47650150       3.52978442
C        1.31261745       2.06754245      -0.17044588
C        2.51048422       2.72354897      -0.38781353
C        2.40433442       2.94299905       3.35138448
C        3.69074202       3.64958539       3.43236367
C        3.73679118       2.03754932      -0.21897286
C        4.97295320       2.76190831      -0.20094483
C        4.86239105       2.95390815       3.53674952
C        6.15320804       3.64050137       3.58449657
C        6.21666602       2.08887752      -0.07608765
C        7.42406642       2.75851450       0.02306846
C        7.39124248       2.87654462       3.61030808
C        8.58326129       3.65278398       3.63679303
C        8.66682676       2.00652877       0.01597123
C        9.90145654       2.79329171      -0.18950526
C        9.82558088       2.92425716       3.48384964
C       11.03183753       3.64278889       3.36231922
C        2.47668414       4.19763773      -0.54507166
C        3.68815673       4.87734966      -0.44736596
C        3.70636913       5.08048538       3.45834675
C        4.85491618       5.81928533       3.59815169
C        4.90745322       4.15881102      -0.26466705
C        6.17723883       4.92334656      -0.06719196
C        6.14094516       5.07146545       3.59802647
C        7.39558187       5.76993702       3.75983203
C        7.41756474       4.16972308      -0.01905642
C        8.64836292       4.87752122      -0.11861580
C        8.61304637       5.07937317       3.63694684
C        9.85357638       5.82262491       3.65080803
C        9.87460382       4.19126225      -0.25725529
C       11.11630322       4.90404758      -0.53294681
C       11.05561886       5.08282713       3.40899251
C       12.30383868       5.71017753       3.43468669
C        3.78880860       6.28998301      -0.38089575
C        4.96542904       6.99880461      -0.06198785
C        4.86708342       7.26205676       3.64845642
C        6.16287084       7.86868242       3.64930340
C        6.20128146       6.34130431      -0.01232796
C        7.43763477       7.01254452       0.02355554
C        7.35896183       7.19639606       3.73854527
C        8.60199529       7.92042770       3.73473734
C        8.65525013       6.34153503      -0.12632336
C        9.86113801       7.03429273      -0.24261319
C        9.81778458       7.22104014       3.70834705
C       11.05301582       7.88929377       3.62628325
C       11.08370606       6.29916760      -0.46407964
C       12.42133044       7.05273093      -0.40452228
C       12.31516289       7.14912426       3.58620137
C       13.52433317       7.96344886       3.59765474
64
Lattice="9.860000170089029 0.0 0.0 4.930000085044514 8.53900664730135 0.0 0.0 0.0 29.999997077512198" Properties=species:S:1:pos:R:3 energy=-16267.952245605182 pbc="T T T"
C        4.92898253       8.43601500      -0.00153717
C        1.25041959       0.60984495      -0.01853088
C        1.20174964       0.82859004       3.56161250
C        2.44815818       1.50689692       3.47276897
C        7.43983453       8.46572417       0.04697994
C        3.69779882       0.61084969      -0.11792363
C        3.65267749       0.82882274       3.61314973
C        4.89812270       1.49510338       3.62447986
C        9.88149793       8.47201583      -0.14924096
C        6.20265298       0.64902958      -0.11206285
C        6.11206522       0.78894101       3.71699033
C        7.36232014       1.51099178       3.64262719
C       12.36583836       8.47578137      -0.22218919
C        8.64276935       0.63796863      -0.03753801
C        8.62721026       0.78521788       3.62956861
C        9.85581657       1.52755658       3.56482292
C        1.24325334       2.02550237      -0.24412079
C        2.51281020       2.74175842      -0.35623490
C        2.43849735       2.94042756       3.32961951
C        3.66301669       3.63999950       3.40892152
C        3.74661470       2.02589479      -0.20427554
C        4.96661027       2.74581383      -0.19930610
C        4.92192277       2.91867344       3.52401829
C        6.12085738       3.65926003       3.58623292
C        6.19897126       2.05381930      -0.11714370
C        7.44447761       2.75308263      -0.01644056
C        7.34368671       2.97164235       3.65769031
C        8.60283437       3.63574688       3.61980523
C        8.66672619       2.05562565       0.04360092
C        9.86250855       2.71710053      -0.16399054
C        9.83264163       2.92790634       3.45298389
C       11.04707221       3.67110090       3.32312177
C        2.47903575       4.15143179      -0.56466643
C        3.74889433       4.88007792      -0.50710277
C        3.67091750       5.06941161       3.45062932
C        4.93172657       5.78313068       3.60208188
C        4.98764066       4.17851623      -0.25554458
C        6.17123607       4.85094359       0.00763361
C        6.13375328       5.06722861       3.61963761
C        7.33749661       5.77804884       3.77004403
C        7.39712792       4.16285559      -0.03710121
C        8.64580820       4.86236147      -0.14502877
C        8.58423940       5.09129588       3.67534563
C        9.83988084       5.79741487       3.63024697
C        9.87913153       4.14986405      -0.26093209
C       11.09592753       4.87999707      -0.48834707
C       11.06716886       5.09750177       3.44553565
C       12.31293354       5.81784183       3.41545377
C        3.72811832       6.33715522      -0.34990380
C        4.98005635       7.04507168      -0.09952684
C        4.89004835       7.20248362       3.64489400
C        6.12499464       7.91764324       3.64064829
C        6.19298723       6.28362922      -0.03698092
C        7.41313365       7.01099256       0.04770761
C        7.37193759       7.18514087       3.76269734
C        8.57510509       7.95135557       3.70981619
C        8.65753470       6.29088914      -0.11099304
C        9.92450725       7.03332645      -0.26456352
C        9.83869863       7.23544363       3.67086229
C       11.08774669       7.91416858       3.66857871
C       11.14568898       6.33114949      -0.48339538
C       12.35066086       7.03430752      -0.37287957
C       12.30488088       7.20935013       3.57360916
C       13.51057748       7.92095817       3.58309054
64
Lattice="9.860000170089029 0.0 0.0 4.930000085044514 8.53900664730135 0.0 0.0 0.0 29.999997077512198" Properties=species:S:1:pos:R:3 energy=-16266.263360589182 pbc="T T T"
C        4.93305669       8.40448864      -0.29044800
C        1.23812417       0.56512887      -0.29393942
C        1.20740435       0.87990149       3.50806580
C        2.39636557       1.61131334       3.60432602
C        7.40524467       8.36174849      -0.27108394
C        3.71105954       0.61599168      -0.13771758
C        3.65263608       0.88442723       3.48125744
C        4.92646725       1.46489530       3.53321570
C        9.90914438       8.42429541      -0.11119418
C        6.15684441       0.60256137      -0.17193770
C        6.18018796       0.82833566       3.41524375
C        7.40125235       1.60096133       3.46518466
C       12.31819287       8.44157604      -0.11358424
C        8.65524619       0.59260770      -0.23928347
C        8.60535755       0.85548517       3.47890287
C        9.83048722       1.54011724       3.59247233
C        1.27039792       1.94286176      -0.17734098
C        2.46502075       2.66817422       0.08307346
C        2.45436209       2.98747849       3.71149338
C        3.70853833       3.64250986       3.73466931
C        3.71925418       2.00549445      -0.02129859
C        5.00248489       2.67832509      -0.08994194
C        4.88396473       2.93120944       3.57840211
C        6.10352350       3.73524809       3.37353201
C        6.21652995       1.99512666      -0.25833989
C        7.39926063       2.73091242      -0.27618551
C        7.34700658       3.04563475       3.41265255
C        8.57378090       3.67129613       3.47404288
C        8.63450469       2.02198925      -0.24551203
C        9.89222166       2.66892752      -0.10020225
C        9.85387612       3.01432826       3.64631779
C       11.09654378       3.74312031       3.67052310
C        2.50007502       4.15109655       0.19290992
C        3.71892782       4.87596038       0.15171977
C        3.71736106       5.09699201       3.70112657
C        4.88102941       5.82272154       3.54608004
C        4.96129277       4.08088941      -0.00289588
C        6.18697558       4.80604016      -0.22488195
C        6.12805518       5.10330635       3.40886433
C        7.37916398       5.82540543       3.33973193
C        7.42521215       4.10461355      -0.27448564
C        8.64575101       4.80492697      -0.16938494
C        8.59044331       5.10907149       3.49352131
C        9.82939079       5.87429723       3.53406760
C        9.79407226       4.05399133       0.04542798
C       11.11925727       4.77813538       0.22328463
C       11.07605568       5.21249599       3.65386858
C       12.33455652       5.90540750       3.62459424
C        3.73436069       6.32526998       0.07260806
C        4.94401805       6.96033582      -0.17541631
C        4.91067054       7.20338483       3.47123278
C        6.11497589       7.99030355       3.41101381
C        6.18967624       6.26043653      -0.25769308
C        7.46035615       6.96911024      -0.33701283
C        7.34373996       7.26981757       3.36490451
C        8.55542651       7.97015070       3.33664674
C        8.70586940       6.24977984      -0.24235486
C        9.92052184       6.96005186      -0.04659442
C        9.82371044       7.27811476       3.38428434
C       11.05215800       7.97197874       3.41269889
C       11.08892791       6.19680009       0.16772945
C       12.40729276       7.08784140       0.08360393
C       12.29601674       7.26701535       3.46766346
C       13.57632889       7.91147187       3.47777686
64
Lattice="9.860000170089029 0.0 0.0 4.930000085044514 8.53900664730135 0.0 0.0 0.0 29.999997077512198" Properties=species:S:1:pos:R:3 energy=-16266.514851192122 pbc="T T T"
C        4.92796202       8.38017585      -0.26464536
C        1.26706425       0.54759779      -0.22469659
C        1.20104761       0.88281709       3.45166758
C        2.45328439       1.57715633       3.59022030
C        7.42989664       8.41569847      -0.25505355
C        3.69687100       0.53761848      -0.20838420
C        3.65210265       0.89358026       3.44902510
C        4.91978414       1.55505119       3.48461379
C        9.82629376       8.37836062      -0.07553352
C        6.17004399       0.55165616      -0.11311984
C        6.14007255       0.83006411       3.34117445
C        7.36434736       1.59797670       3.38334271
C       12.34011165       8.37877277      -0.10811392
C        8.61086534       0.55128839      -0.27838429
C        8.64211563       0.85460861       3.40985526
C        9.86705796       1.60880003       3.59168057
C        1.26285107       1.99838539      -0.14645255
C        2.52843928       2.70270295       0.17722069
C        2.40960065       3.01230499       3.75909154
C        3.67733636       3.66630500       3.75355614
C        3.71784420       1.95611163       0.00629167
C        4.94739313       2.70966904      -0.08076721
C        4.96235962       2.94817259       3.55561959
C        6.10526379       3.71836974       3.37440758
C        6.16336877       1.98687877      -0.21181154
C        7.46674346       2.71213503      -0.27901631
C        7.35357728       3.03260969       3.42101186
C        8.63667981       3.71101615       3.43151177
C        8.67913598       1.98825523      -0.21580287
C        9.88690712       2.66010085      -0.08365421
C        9.83104924       2.97642839       3.60873344
C       11.04332738       3.75125284       3.72090475
C        2.46906433       4.09746801       0.26291296
C        3.71431925       4.83847956       0.14823524
C        3.67978559       5.12394826       3.65354911
C        4.96239709       5.83355571       3.53359334
C        4.96387609       4.13890072       0.03518640
C        6.14760953       4.82919835      -0.20363957
C        6.14362314       5.15326598       3.36596840
C        7.36230338       5.80072191       3.27751631
C        7.37759526       4.14669308      -0.25356864
C        8.64012391       4.83087356      -0.16568153
C        8.60753266       5.12572898       3.40040150
C        9.83849748       5.85363954       3.50231347
C        9.88236758       4.09525839       0.09100780
C       11.04251196       4.82970515       0.23548343
C       11.07084566       5.15960399       3.73076277
C       12.32016585       5.83746224       3.64287468
C        3.74305425       6.29766296       0.18645458
C        4.99163002       6.99604184      -0.18512545
C        4.88907813       7.29338099       3.44236467
C        6.12902639       7.96379593       3.33842154
C        6.20685926       6.22700719      -0.30737367
C        7.43260814       6.95661072      -0.32799981
C        7.37331897       7.22415295       3.32266427
C        8.58227923       8.02516358       3.31017264
C        8.68753572       6.23728131      -0.17140427
C        9.92054156       6.96337961      -0.03394995
C        9.82774121       7.29017156       3.34884454
C       11.09459051       7.94443188       3.42777582
C       11.16632596       6.26497213       0.14306663
C       12.31153342       6.91803347       0.12933559
C       12.31176415       7.25835236       3.46154139
C       13.48870110       8.00682793       3.49380331
64
Lattice="9.860000170089029 0.0 0.0 4.930000085044514 8.53900664730135 0.0 0.0 0.0 29.999997077512198" Properties=species:S:1:pos:R:3 energy=-16268.308313638023 pbc="T T T"
C        4.93528110       8.35583052      -0.20551001
C        1.26718849       0.55996321      -0.20783106
C        1.18964550       0.88573861       3.47946687
C        2.47680936       1.57475936       3.54406071
C        7.42909108       8.40674954      -0.24674453
C        3.71990198       0.55882537      -0.11388892
C        3.69257499       0.87677784       3.42150387
C        4.89427730       1.60053636       3.39976651
C        9.88336048       8.39013642      -0.11097627
C        6.20375139       0.54286893      -0.09427245
C        6.12216482       0.88168910       3.35080865
C        7.36966289       1.59117330       3.33175913
C       12.37175140       8.37464242      -0.07637655
C        8.65581511       0.53104285      -0.17949736
C        8.61136722       0.84048120       3.41666359
C        9.83922121       1.60491519       3.44254018
C        1.22534955       1.97852735       0.04447057
C        2.50001882       2.70254815       0.10236948
C        2.47056700       2.98150235       3.74063263
C        3.67136219       3.72396825       3.66511194
C        3.69573512       1.97017791      -0.01337115
C        4.98337720       2.68282125      -0.01869259
C        4.91287819       3.02724092       3.51872741
C        6.14287378       3.73498384       3.44848477
C        6.14286983       1.95084245      -0.12594573
C        7.40951701       2.67742093      -0.19830038
C        7.38335547       3.00797743       3.33530380
C        8.59912800       3.70908951       3.42934553
C        8.65471671       1.99702669      -0.22611347
C        9.84293547       2.68572403      -0.05997937
C        9.83619714       2.95953328       3.56602584
C       11.08362422       3.70189565       3.77624991
C        2.50214661       4.10140610       0.27942254
C        3.72084756       4.80166627       0.23674255
C        3.66163826       5.17678307       3.65171712
C        4.91024656       5.84551589       3.43555930
C        4.97932769       4.10132426      -0.03274900
C        6.18289453       4.81395676      -0.17500021
C        6.16171032       5.15788441       3.36844622
C        7.36501981       5.86710042       3.26305860
C        7.41376469       4.08792057      -0.20135501
C        8.64162756       4.82793331      -0.08992912
C        8.58925617       5.15555646       3.32560551
C        9.87430309       5.82586097       3.45584428
C        9.89176416       4.12023180       0.01079374
C       11.10731090       4.82308317       0.20568946
C       11.06264017       5.13015513       3.66388437
C       12.28815142       5.87806572       3.65873153
C        3.71580811       6.25072640       0.06983542
C        4.94569129       6.96591856      -0.11823323
C        4.92342149       7.28742260       3.41453383
C        6.15321001       7.98925149       3.34265838
C        6.16316960       6.24059229      -0.22569540
C        7.38111232       6.96857188      -0.26661539
C        7.39309715       7.29163873       3.23304969
C        8.62049166       7.97901977       3.32063903
C        8.61380658       6.23510126      -0.12922516
C        9.85269194       6.94178522      -0.02057979
C        9.86621098       7.26192957       3.39138650
C       11.07176855       7.99805549       3.37561839
C       11.12454125       6.24542369       0.15362077
C       12.33040053       6.94842692       0.10989069
C       12.30097139       7.27333561       3.52659668
C       13.53459151       7.97463601       3.43026547
64
Lattice="9.860000170089029 0.0 0.0 4.930000085044514 8.53900664730135 0.0 0.0 0.0 29.999997077512198" Properties=species:S:1:pos:R:3 energy=-16267.865947694507 pbc="T T T"
C        4.96733695       8.38052391      -0.15238334
C        1.23205534       0.54547493      -0.15112126
C        1.23169052       0.90053255       3.46982083
C        2.43879118       1.56375856       3.54217548
C        7.41665466       8.41241509      -0.19779949
C        3.72636719       0.57856706      -0.06760805
C        3.67363591       0.86226194       3.39893334
C        4.91643963       1.60061623       3.40421239
C        9.87520429       8.36281436      -0.09976447
C        6.19338458       0.53377505      -0.10827858
C        6.14365173       0.89516871       3.34818392
C        7.38017167       1.57861265       3.36684299
C       12.36663899       8.41150994      -0.04404758
C        8.67075301       0.60398121      -0.10676803
C        8.61179021       0.83240882       3.36562922
C        9.82170590       1.54252110       3.42201363
C        1.21079619       1.95636799       0.01751728
C        2.44066359       2.66626434       0.08985714
C        2.46461649       2.99267077       3.67195675
C        3.68903821       3.74351570       3.62007047
C        3.72854526       1.99807185      -0.00967069
C        4.92515784       2.64972813      -0.01857525
C        4.92734380       3.01157140       3.47663803
C        6.12853438       3.75838754       3.41999430
C        6.22755146       1.95218735      -0.09109753
C        7.40697806       2.67013537      -0.15178977
C        7.33810102       3.04901475       3.33715551
C        8.63425819       3.72381049       3.39249476
C        8.62162359       1.96839029      -0.17242084
C        9.86855273       2.68502890      -0.03577898
C        9.85020820       3.03407094       3.55567974
C       11.08750610       3.68411709       3.68744286
C        2.49585297       4.09493991       0.21504660
C        3.79670448       4.82762173       0.15698501
C        3.66006362       5.16672291       3.62885770
C        4.93081452       5.84731830       3.42038082
C        4.97723343       4.07621577      -0.00325972
C        6.19562083       4.78657751      -0.15892348
C        6.13190058       5.16182545       3.39997752
C        7.37116161       5.87102568       3.25793633
C        7.40752036       4.09705192      -0.14430603
C        8.62863701       4.79357022      -0.08802614
C        8.60995033       5.11851836       3.38307156
C        9.81532352       5.82932084       3.42984740
C        9.86429420       4.09093675      -0.01082431
C       11.10816970       4.79725392       0.16992921
C       11.10973350       5.12102970       3.61874331
C       12.28615576       5.91045977       3.65686996
C        3.67652784       6.24080231       0.02476240
C        4.91652442       6.92626459      -0.11249570
C        4.93498333       7.23206757       3.36762488
C        6.14075190       8.03183486       3.36861088
C        6.16220332       6.20957273      -0.12460279
C        7.38649095       6.96756025      -0.21314362
C        7.37756568       7.29374877       3.25957111
C        8.64813713       8.00251023       3.32090919
C        8.62272791       6.25165028      -0.12044483
C        9.89240802       6.96455295      -0.02407615
C        9.85881796       7.26413328       3.38903785
C       11.08497800       8.01092673       3.41904281
C       11.08512393       6.24285911       0.15197810
C       12.33055534       6.98284325       0.04633313
C       12.28698893       7.33678570       3.50498159
C       13.55034089       7.93691461       3.43008996
64
Lattice="9.860000170089029 0.0 0.0 4.930000085044514 8.53900664730135 0.0 0.0 0.0 29.999997077512198" Properties=species:S:1:pos:R:3 energy=-16267.778005808072 pbc="T T T"
C        5.01623565       6.73474296      -0.24347298
C        6.25255247       7.44024767      -0.23012156
C        9.77314737       1.80886436       3.71204258
C       10.98060891       2.49881393       3.63067588
C        7.50639545       6.74461775      -0.08154023
C        8.73958962       7.45243660      -0.21782712
C        2.32816000       1.82658475       3.54517884
C        3.57530804       2.52522492       3.48771278
C        9.96208075       6.72847891      -0.32046480
C       11.23425840       7.46914733      -0.39934578
C        4.79579661       1.79995585       3.59152380
C        6.06689656       2.48570308       3.68646377
C       12.45549534       6.74778873      -0.48145888
C       13.64713454       7.43949239      -0.44643419
C        7.31218796       1.78747802       3.78937160
C        8.56147562       2.50450118       3.84119182
C        1.30288465       0.33378960      -0.27476665
C        2.56987889       1.05901036      -0.25704232
C       10.97529733       3.95422292       3.65514939
C       12.20743943       4.63234048       3.48899951
C        3.80380566       0.33767148      -0.20269695
C        5.01627903       1.05333494      -0.16533643
C        3.64871081       3.92709214       3.51095675
C        4.81854659       4.64176763       3.68356788
C        6.27936674       0.36377090      -0.29731549
C        7.53090347       1.04794251      -0.29219420
C        6.05295846       3.95006002       3.76820514
C        7.31412742       4.67539516       3.91246976
C        8.71413208       0.31323544      -0.40024501
C        9.97159565       1.03949348      -0.39108902
C        8.53520759       3.94374371       3.88685644
C        9.73248670       4.63748247       3.79504110
C        2.56069627       2.48567745      -0.32371564
C        3.83379189       3.21080454      -0.22995788
C       12.19088252       6.07957948       3.51646849
C       13.47934593       6.76239928       3.54471049
C        5.05310712       2.48513613      -0.10893032
C        6.26997214       3.18302892      -0.08072185
C        4.81313246       6.07063646       3.62092040
C        6.03406177       6.77943933       3.74426703
C        7.47866420       2.44373399      -0.15487694
C        8.71910152       3.12708131      -0.26643791
C        7.30015284       6.09947203       3.80735920
C        8.53781457       6.80118951       3.82963886
C        9.98929041       2.47114184      -0.40886956
C       11.16728336       3.17912239      -0.50488722
C        9.78258438       6.05536134       3.76067801
C       11.00095798       6.80779571       3.64555068
C        3.78744299       4.62059427      -0.32454585
C        5.03205010       5.32090078      -0.14879332
C       13.44715500       8.16605214       3.64192614
C        9.72656577       0.36067190       3.66823164
C        6.29072448       4.59336489      -0.08428920
C        7.50312883       5.31171126      -0.05856544
C        6.05831146       8.17147415       3.70019086
C        2.34110125       0.39157314       3.65961893
C        8.73080534       4.57980049      -0.20055733
C        9.97520737       5.33968013      -0.37039091
C        8.51836572       8.22747698       3.71041568
C        4.83837505       0.35327395       3.60178904
C       11.20466164       4.61872777      -0.51645991
C       12.41784690       5.28831644      -0.47646775
C       10.98033875       8.19105316       3.64739351
C        7.25614470       0.38229193       3.67525492
64
Lattice="9.860000170089029 0.0 0.0 4.930000085044514 8.53900664730135 0.0 0.0 0.0 29.999997077512198" Properties=species:S:1:pos:R:3 energy=-16266.539373819145 pbc="T T T"
C        4.87593968       8.44007634      -0.16194261
C        1.18568770       0.54801191      -0.09234186
C        1.23888930       0.81863440       3.41903690
C        2.48853192       1.51611011       3.53213110
C        7.36732114       8.36341582      -0.14414236
C        3.70264205       0.61519499      -0.10018549
C        3.72987932       0.84157073       3.35329830
C        4.92347276       1.56006993       3.41791581
C        9.84567655       8.43793869      -0.01851116
C        6.18834021       0.61314411      -0.06178769
C        6.17750505       0.87861278       3.30803104
C        7.44095364       1.52407797       3.27381684
C       12.30717235       8.46347214      -0.02700654
C        8.58769631       0.60170848      -0.10545467
C        8.66910541       0.84818975       3.25660720
C        9.86325298       1.54335230       3.49864259
C        1.19031007       2.01126847      -0.05750056
C        2.45157861       2.68202851       0.22771375
C        2.48149977       3.02405219       3.67456077
C        3.75775452       3.70462786       3.66004094
C        3.69889427       2.00609789       0.07805176
C        4.87218104       2.71804314      -0.00690989
C        4.96824703       2.97117893       3.46168830
C        6.15978959       3.62460804       3.29972596
C        6.15620745       2.04313698      -0.15563320
C        7.39061637       2.68914841      -0.14976749
C        7.39596739       2.93978567       3.31266327
C        8.68571951       3.72077164       3.32248186
C        8.56355312       1.96435755      -0.06217815
C        9.83332887       2.71695065       0.00266220
C        9.87379037       3.00889934       3.49364062
C       11.12200033       3.73636325       3.63705925
C        2.41271049       4.13110639       0.24919573
C        3.67472642       4.82575523       0.12006424
C        3.70738669       5.08503380       3.61377979
C        4.95990054       5.82883869       3.46648519
C        4.91159344       4.11413141       0.08614189
C        6.15464267       4.87562613      -0.04097126
C        6.19045814       5.11336355       3.30313161
C        7.36581847       5.83895702       3.21600470
C        7.37759624       4.13169700      -0.12233401
C        8.61602902       4.79167217      -0.11690411
C        8.65054987       5.15240422       3.35640618
C        9.88518853       5.85945990       3.47278376
C        9.87020428       4.11536194       0.12001296
C       11.05341515       4.82115456       0.25374020
C       11.15608437       5.11972621       3.71542259
C       12.37281037       5.81796409       3.66037716
C        3.68698733       6.28471678       0.14557304
C        4.89973777       6.97043246      -0.12414529
C        4.95022689       7.22119692       3.33345801
C        6.18296158       7.92272903       3.25425263
C        6.16854922       6.26507270      -0.12455842
C        7.34159146       6.97817355      -0.16809821
C        7.40825887       7.24410268       3.22126699
C        8.61160780       7.94206153       3.19944681
C        8.60891602       6.26748840      -0.14928336
C        9.85257066       7.01310654      -0.02910573
C        9.83931290       7.25813840       3.29156977
C       11.14647482       7.94500178       3.42619920
C       11.08509139       6.27192244       0.13819185
C       12.27464125       7.02386775       0.12437601
C       12.36269401       7.20923477       3.46428838
C       13.58776748       8.01928900       3.35682720
64
Lattice="9.860000170089029 0.0 0.0 4.930000085044514 8.53900664730135 0.0 0.0 0.0 29.999997077512198" Properties=species:S:1:pos:R:3 energy=-16267.563158462819 pbc="T T T"
C        4.91161217       8.45830649      -0.04669499
C        1.22662248       0.69220061      -0.08934738
C        1.27020959       0.76406620       3.58064033
C        2.49126905       1.48402172       3.50679583
C        2.45945182       0.00433347       0.00181720
C        3.65237577       0.67641672      -0.15903786
C        3.71616603       0.77033519       3.57646955
C        4.98114588       1.42581124       3.58256697
C        9.82000801       8.46791210      -0.08919060
C        6.10604076       0.65326642      -0.04852303
C        6.19587423       0.71899516       3.61830257
C        7.42306760       1.46543267       3.70975013
C       12.29901221       8.46974409      -0.10778262
C        8.62326133       0.65563677      -0.13156987
C        8.62785708       0.73412533       3.69456967
C        9.89489767       1.44564857       3.56891383
C        1.22085043       2.08951349      -0.17902309
C        2.43674030       2.84041462      -0.32023900
C        2.49573268       2.86855506       3.29109649
C        3.73094025       3.58220905       3.26563896
C        3.64173092       2.09209681      -0.24876583
C        4.93136668       2.77853622      -0.20191308
C        4.95385143       2.88826520       3.51051601
C        6.16597477       3.65523320       3.71136618
C        6.14175565       2.06539297      -0.08505532
C        7.36728268       2.84205828      -0.03028795
C        7.41909501       2.93777029       3.75608227
C        8.62468906       3.57611163       3.65425016
C        8.63456878       2.13459439      -0.09295811
C        9.83863651       2.79359638      -0.21776008
C        9.88433465       2.85650910       3.46998746
C       11.10631011       3.56753639       3.27666441
C        2.47756760       4.24430807      -0.41180389
C        3.70163929       4.97238625      -0.35761925
C        3.72871288       5.04064210       3.28647314
C        4.93332488       5.73396182       3.53586508
C        4.93408903       4.24290992      -0.22242484
C        6.09070353       4.92132328      -0.08656883
C        6.18249323       5.02912365       3.66817445
C        7.47082451       5.71343626       3.80326138
C        7.35413634       4.24821164      -0.03550980
C        8.60633073       4.97701355      -0.12261798
C        8.64758103       4.99239318       3.57625756
C        9.88207572       5.69097123       3.48796619
C        9.79367984       4.25146248      -0.26605731
C       11.07787584       4.95075933      -0.41384196
C       11.07294288       5.00184103       3.24798266
C       12.33489078       5.78821647       3.28682218
C       13.51797840       6.37953350      -0.29852137
C        4.89846583       7.07282955      -0.08637163
C        4.94908412       7.16293516       3.65908846
C        6.19082197       7.89289267       3.72903333
C        6.14440898       6.36527988      -0.04245617
C        7.39998929       7.08111491       0.03846978
C        7.45331414       7.18022172       3.80235624
C        8.66305531       7.87802872       3.70497592
C        8.61348219       6.36239090      -0.03537275
C        9.85167636       7.04578259      -0.11140321
C        9.90032658       7.14089313       3.62257885
C       11.07750510       7.87244894       3.58258768
C       11.03938437       6.35333647      -0.30489290
C       12.30612620       7.05621447      -0.25827383
C       12.32662317       7.16730019       3.50775126
C       13.57616324       7.82987051       3.58681663
64
Lattice="9.860000170089029 0.0 0.0 4.930000085044514 8.53900664730135 0.0 0.0 0.0 29.999997077512198" Properties=species:S:1:pos:R:3 energy=-16267.261398773839 pbc="T T T"
C       14.74410787       8.53314389      -0.05381292
C        1.17228599       0.69273896      -0.10394708
C        1.29078840       0.68220651       3.62678020
C        2.50218605       1.48090498       3.50747617
C        7.31426250       8.49252168       0.01570008
C        3.68674576       0.68664844      -0.05052954
C        3.74299410       0.76179643       3.56818320
C        4.95656687       1.48784247       3.60971845
C        9.84562626       8.52487234      -0.10296798
C        6.16336581       0.68402962      -0.10344225
C        6.20488825       0.75146315       3.66093721
C        7.40061343       1.46124907       3.79827321
C       12.29235474       8.51425607      -0.06354179
C        8.57826917       0.66943781      -0.07863054
C        8.63589692       0.75868659       3.71988226
C        9.89790891       1.41250418       3.59566795
C       11.07600836       2.12240743      -0.28123383
C        2.45904066       2.81556249      -0.38249406
C        2.48790679       2.90137308       3.21472192
C        3.73883121       3.59743782       3.23856438
C        3.70116996       2.11772788      -0.28560279
C        4.93651064       2.81006061      -0.20731636
C        4.94680448       2.88569273       3.50465719
C        6.16381740       3.57521536       3.68257893
C        6.17906984       2.11564347      -0.07431285
C        7.40923698       2.80888924      -0.02747193
C        7.38511745       2.83715786       3.77652008
C        8.65068988       3.58290418       3.66179503
C        8.60392292       2.08149238      -0.11411668
C        9.85291477       2.83047968      -0.19202745
C        9.86457817       2.84963076       3.50767633
C       11.09590091       3.57734413       3.18432452
C       12.31539361       4.25290303      -0.49265688
C        3.68542945       4.94094863      -0.41367138
C        3.73147565       5.01115183       3.28526529
C        4.93536886       5.77246414       3.53506839
C        4.87120490       4.19677695      -0.21929429
C        6.14336678       4.96047044      -0.09414131
C        6.17512386       5.08566582       3.73852161
C        7.42450914       5.73051181       3.81565047
C        7.34991823       4.23089452      -0.00324098
C        8.56864285       4.94104230      -0.10732906
C        8.68390921       5.00189033       3.70005085
C        9.88578407       5.73159641       3.44684013
C        9.83074456       4.23501107      -0.31842476
C       11.03626960       4.93921623      -0.43753849
C       11.11328803       5.01211811       3.15066544
C       12.35182434       5.67261783       3.25700949
C        3.71635633       6.36798251      -0.36849581
C        4.90461453       7.08252982      -0.06324599
C        4.94596836       7.16727751       3.64089676
C        6.19422466       7.80462299       3.82299124
C        6.15171820       6.37359679       0.02871429
C        7.36148697       7.08449886       0.06744536
C        7.41948054       7.13638613       3.83691455
C        8.65666997       7.85023239       3.70325929
C        8.60890912       6.38821720      -0.03035894
C        9.81498927       7.11897632      -0.08870944
C        9.85874992       7.12557562       3.62020949
C       11.12199540       7.82698054       3.57206903
C       11.09139291       6.38180919      -0.27819892
C       12.31180950       7.08282661      -0.30788738
C       12.33902212       7.11518713       3.42771961
C       13.55998791       7.90838569       3.62189753
64
Lattice="9.860000170089029 0.0 0.0 4.930000085044514 8.53900664730135 0.0 0.0 0.0 29.999997077512198" Properties=species:S:1:pos:R:3 energy=-16268.260225136228 pbc="T T T"
C        5.02370657       7.00301089       0.09008885
C        6.23133474       7.71780470       0.12029299
C        9.79705196       1.54690782       3.44473797
C       11.02890319       2.23727841       3.41291581
C        7.47076042       7.02849209       0.17197023
C        8.69398021       7.71409241       0.09129571
C        2.37498613       1.51049780       3.47266938
C        3.64918902       2.24188204       3.37154029
C        9.91545380       6.99539798       0.13650579
C       11.13332256       7.73607627       0.07875675
C        4.88951887       1.51276757       3.30430298
C        6.09055267       2.24716306       3.38584616
C       12.38137772       7.01961020       0.02950013
C       13.62652221       7.74670929      -0.00435516
C        7.34440551       1.49865298       3.35318196
C        8.58027469       2.24625298       3.48392359
C        1.28855412       0.59735036      -0.10106599
C        2.50479303       1.34303161      -0.06968950
C       11.03770225       3.62282239       3.28391447
C       12.23374295       4.36402424       3.14824875
C        3.77205547       0.65188997       0.01953759
C        4.98873118       1.33401760       0.09779740
C        3.65782342       3.63256802       3.25309112
C        4.87109151       4.35563338       3.28647117
C        6.23043255       0.60622831       0.12510960
C        7.43300057       1.33515741       0.11589641
C        6.08512671       3.66665010       3.44398171
C        7.34156090       4.37066101       3.47479125
C        8.66102908       0.61619677      -0.02641198
C        9.92504955       1.32126566      -0.14127901
C        8.57491578       3.66833813       3.49539274
C        9.81512534       4.37547762       3.39841668
C        2.53158462       2.74055648      -0.15746716
C        3.77399690       3.49110167      -0.01505523
C       12.26046454       5.80532357       3.02719753
C       13.53324168       6.48339480       3.20181222
C        4.98553259       2.76655434       0.10255288
C        6.25923558       3.43665080       0.19317614
C        4.85034410       5.79892936       3.28894898
C        6.09850575       6.50529287       3.48332804
C        7.48270582       2.75093117       0.16628299
C        8.69115927       3.45960488       0.05345106
C        7.33567842       5.77852606       3.50468184
C        8.52909538       6.51746208       3.43974881
C        9.90791188       2.72502304      -0.12262586
C       11.14805340       3.45826491      -0.22544299
C        9.78730830       5.82336836       3.28766620
C       11.02135733       6.51903278       3.08316191
C        3.73522147       4.88335440       0.06630061
C        4.99019834       5.59339667       0.14172764
C       13.52325448       7.90145411       3.28965792
C        9.76206473       0.12373610       3.44393833
C        6.19605763       4.86598108       0.24150986
C        7.47349460       5.56967746       0.24381020
C        6.08245564       7.93558252       3.54104060
C        2.42823309       0.10714764       3.56372057
C        8.67956982       4.86875864       0.11358129
C        9.93679084       5.58411644       0.04872615
C        8.58129816       7.93340346       3.42979810
C        4.86664465       0.09186661       3.31518940
C       11.16455017       4.89416391      -0.13693667
C       12.40315156       5.59478496      -0.02125126
C       11.01157523       7.95509251       3.18784849
C        7.31719980       0.03655102       3.27254687
64
Lattice="9.860000170089029 0.0 0.0 4.930000085044514 8.53900664730135 0.0 0.0 0.0 29.999997077512198" Properties=species:S:1:pos:R:3 energy=-16266.622345002092 pbc="T T T"
C        5.10158479       6.69430316      -0.33414160
C        6.27462408       7.43874007      -0.22298686
C        9.75014991       1.88438013       3.71990198
C       10.98364283       2.53558187       3.61216571
C        7.52049328       6.75412378      -0.26418884
C        8.75308105       7.40030875      -0.28590254
C        2.34364908       1.82170504       3.53572014
C        3.62018977       2.52918174       3.51209854
C        9.97372936       6.67675335      -0.39309553
C       11.18056971       7.41584417      -0.47428869
C        4.79702714       1.74695933       3.73661961
C        5.97654248       2.52587174       3.85293113
C       12.43767043       6.71083345      -0.59755742
C       13.69666033       7.45626327      -0.41247240
C        7.26770358       1.81744650       3.81822295
C        8.49020359       2.55951209       3.79482122
C        1.35003517       0.32925794      -0.29277397
C        2.57945591       1.04125842      -0.29785089
C       10.98407371       3.89869435       3.65421171
C       12.21144259       4.70261172       3.65129709
C        3.83530145       0.28782819      -0.19613217
C        5.02780931       0.97104338      -0.19802627
C        3.61308170       3.93693834       3.58341395
C        4.82112794       4.70387774       3.63904702
C        6.29793411       0.31909228      -0.33795052
C        7.47673558       1.09522417      -0.41353432
C        5.98531985       3.96027498       3.86290452
C        7.23183882       4.65211471       3.89754468
C        8.75641867       0.36676736      -0.36747432
C        9.98520935       1.06273645      -0.34225540
C        8.45357270       3.94450293       3.81435586
C        9.73137450       4.60145699       3.77952541
C        2.60795920       2.44296196      -0.35804027
C        3.86679627       3.16696698      -0.35587206
C       12.16279927       6.14720034       3.77096791
C       13.46613353       6.82512860       3.71995819
C        5.06269005       2.43104220      -0.25097940
C        6.27989918       3.15498116      -0.12823916
C        4.79255858       6.09452921       3.71735219
C        6.03256502       6.79933385       3.78028561
C        7.48767033       2.48728759      -0.34216370
C        8.71597294       3.16410068      -0.27106619
C        7.25749257       6.07829570       3.87801793
C        8.48102196       6.77138568       3.78238086
C        9.97401825       2.46630846      -0.21918978
C       11.28133990       3.16772324      -0.23667254
C        9.72411359       6.03451435       3.80879876
C       10.92339527       6.81844746       3.75708996
C        3.80978180       4.58067310      -0.44398891
C        5.06319488       5.27472935      -0.34135912
C       13.48156048       8.25723348       3.61676540
C        9.76518739       0.45561779       3.58854016
C        6.28693134       4.59613555      -0.10903188
C        7.53744656       5.30722397      -0.20063523
C        6.05257984       8.20667929       3.60654255
C        2.39030956       0.41374927       3.51649905
C        8.72571758       4.57348516      -0.26473903
C       10.00136398       5.24937535      -0.36043526
C        8.51458145       8.18880804       3.68243497
C        4.80578183       0.34788743       3.81039016
C       11.22108544       4.57170937      -0.37820890
C       12.45081184       5.30147954      -0.54620457
C       10.98217764       8.29341968       3.84087433
C        7.28681818       0.35309055       3.69577654
64
Lattice="9.860000170089029 0.0 0.0 4.930000085044514 8.53900664730135 0.0 0.0 0.0 29.999997077512198" Properties=species:S:1:pos:R:3 energy=-16265.693900748012 pbc="T T T"
C        4.94226100       8.50644202      -0.06952976
C        1.21986936       0.64519700      -0.11765938
C        1.19892771       0.76561324       3.65777610
C        2.46873205       1.40107349       3.46815646
C        7.43819482       8.50565618      -0.01555514
C        3.67646868       0.72940830      -0.10887708
C        3.70850678       0.66586257       3.59697440
C        4.94981474       1.39116419       3.62225051
C        9.82423006       8.53083172      -0.01334748
C        6.14264700       0.68885116      -0.06607383
C        6.18699136       0.76075423       3.68629417
C        7.44684697       1.39919318       3.72785210
C        7.37621979       0.01959971      -0.19600694
C        8.63351968       0.74554715      -0.10573568
C        8.68113461       0.70781490       3.75416548
C        9.80624148       1.44390533       3.71951449
C       11.04021557       2.13002626      -0.33425401
C        2.40829321       2.85504094      -0.45355311
C        2.51269878       2.85530914       3.27008976
C        3.73548769       3.55501123       3.33775796
C        3.65857673       2.14437650      -0.20967981
C        4.81337403       2.87195775      -0.21240314
C        4.94561241       2.77523312       3.51194472
C        6.20534970       3.48599221       3.68125769
C        6.13016522       2.13357191      -0.11488182
C        7.35369264       2.82835880      -0.09483250
C        7.42431292       2.82204938       3.75775255
C        8.68709300       3.57520155       3.69091457
C        8.60951847       2.12638200      -0.06871336
C        9.83116854       2.86515829      -0.31925596
C        9.88710925       2.89373060       3.50285380
C       11.12351679       3.57623784       3.31183898
C       12.30673653       4.28429135      -0.51388743
C        3.70593036       4.96759627      -0.39730082
C        3.65901944       4.95309516       3.30644161
C        4.96202241       5.65145531       3.61344849
C        4.91123946       4.27619136      -0.27746928
C        6.13319126       5.01321849      -0.02980777
C        6.20961316       4.93786639       3.68258188
C        7.40922811       5.76998928       3.81592853
C        7.37426060       4.35580396      -0.05592099
C        8.62095212       4.99143183      -0.05944496
C        8.66033099       5.02227588       3.62197542
C        9.89349360       5.67942024       3.49052091
C        9.86742869       4.25451317      -0.23117165
C       11.14315101       4.97541623      -0.39278494
C       11.15279409       4.99658368       3.29704010
C       12.30324807       5.71554827       3.19840165
C       13.49928679       6.40804073      -0.20927752
C        4.91371136       7.05932332      -0.13719894
C        4.98061541       7.08282168       3.71724570
C        6.20946625       7.83268455       3.72915757
C        6.14454406       6.40387094      -0.03216431
C        7.39306954       7.13210492       0.05501979
C        7.42141112       7.11415183       3.77078452
C        8.62304540       7.82897127       3.69198339
C        8.59844470       6.41304370       0.01298661
C        9.85217429       7.06655169      -0.13341763
C        9.84083825       7.08863316       3.48685792
C       11.11664240       7.86455306       3.51075955
C       11.02112957       6.38054514      -0.32753540
C       12.23354181       7.16637729      -0.23545483
C       12.36165082       7.18809690       3.42011262
C       13.62100356       7.81965456       3.61455873
64
Lattice="9.860000170089029 0.0 0.0 4.930000085044514 8.53900664730135 0.0 0.0 0.0 29.999997077512198" Properties=species:S:1:pos:R:3 energy=-16267.551901929653 pbc="T T T"
C       14.73137664       8.53116696      -0.11632039
C        1.23001136       0.72132409      -0.14494890
C        1.24082778       0.65471387       3.59135618
C        2.48213376       1.42449789       3.54032870
C        2.44864329       0.02196315      -0.06279440
C        3.68744681       0.72202119      -0.10517859
C        3.70312322       0.69315998       3.55333207
C        4.92744536       1.39875540       3.63404603
C        4.94462247       0.03038458      -0.07385239
C        6.15088404       0.77279723      -0.06843333
C        6.17943959       0.67413216       3.56540564
C        7.42911474       1.37693818       3.70139378
C        7.37924582       0.03167426      -0.13102067
C        8.60321201       0.70132998      -0.19253622
C        8.64763230       0.69060131       3.72277026
C        9.92348181       1.45431749       3.66060592
C       11.06251987       2.12779494      -0.32879058
C        2.43866398       2.86204056      -0.35422938
C        2.48724913       2.84651697       3.38127408
C        3.74996217       3.54120131       3.35473293
C        3.62632368       2.13792116      -0.26475777
C        4.93085298       2.85236198      -0.20922920
C        4.96246611       2.84807978       3.56297811
C        6.18653484       3.51348485       3.66244579
C        6.08897803       2.16141162      -0.11451601
C        7.34750648       2.87663040      -0.09583230
C        7.46115481       2.80035837       3.72232754
C        8.60869516       3.58739147       3.61913673
C        8.58525991       2.15801387      -0.17637174
C        9.80482657       2.83957356      -0.21650588
C        9.89140821       2.85182264       3.60754334
C       11.12129928       3.57087991       3.43262496
C        2.46725601       4.26737455      -0.44259174
C        3.66534660       5.01933366      -0.31181265
C        3.75192628       4.98043793       3.37032357
C        4.92518249       5.63306937       3.58474110
C        4.91871137       4.31550121      -0.21565004
C        6.12782347       5.01223051      -0.14987200
C        6.17249913       4.91621285       3.68516225
C        7.41481084       5.65413526       3.69001238
C        7.35637653       4.23416903      -0.04202924
C        8.63153979       4.96742865      -0.05545461
C        8.63685630       5.02451312       3.60653663
C        9.91115188       5.69588842       3.46526354
C        9.85593982       4.29329846      -0.24942054
C       11.05461610       4.99116857      -0.37358949
C       11.10022747       4.97449827       3.37089347
C       12.39005551       5.69688723       3.32299852
C       13.53681888       6.42780905      -0.19733114
C        4.91342049       7.14908186      -0.07216140
C        4.94056902       7.10039220       3.67902144
C        6.16528950       7.80545123       3.71892387
C        6.15167876       6.43804471      -0.08177983
C        7.38388692       7.09736715       0.00572669
C        7.40691199       7.13662671       3.72351074
C        8.64025406       7.79740054       3.60909333
C        8.60496117       6.36593755       0.00137744
C        9.81518055       7.11990021      -0.09657673
C        9.89870560       7.14094243       3.54954189
C       11.09563962       7.83029646       3.50775126
C       11.07917342       6.41006598      -0.28735294
C       12.30521908       7.12707040      -0.23951222
C       12.38164394       7.09459649       3.40772550
C       13.58799327       7.82426115       3.65955188
64
Lattice="9.860000170089029 0.0 0.0 4.930000085044514 8.53900664730135 0.0 0.0 0.0 29.999997077512198" Properties=species:S:1:pos:R:3 energy=-16267.110751110484 pbc="T T T"
C        9.82484335       0.01282293      -0.22716454
C        1.23601906       0.68382059      -0.25545584
C        1.21144300       0.73961242       3.61294070
C        2.45211006       1.46542379       3.59726232
C        7.40545074       8.45418107      -0.23261515
C        3.73785014       0.71986086      -0.08420243
C        3.73079926       0.75096818       3.49539274
C        4.89662300       1.44791736       3.51334878
C        9.89036010       8.52218352      -0.15484243
C        6.18147568       0.66393100      -0.19224240
C        6.12555666       0.77125809       3.51461579
C        7.42560360       1.42729418       3.50078123
C       12.36578906       8.53606147      -0.07707464
C        8.64700915       0.71453351      -0.15086096
C        8.62411422       0.77084890       3.49625943
C        9.81409300       1.44492978       3.52288340
C        1.21865855       2.08800096      -0.08862563
C        2.48962835       2.76177717      -0.07474669
C        2.45894403       2.89475505       3.63074490
C        3.73722403       3.56534550       3.58339423
C        3.71676157       2.07339535      -0.08961557
C        4.94134500       2.82394645      -0.11332591
C        4.88804283       2.85694195       3.56247032
C        6.14205737       3.59822367       3.53033263
C        6.17342301       2.13299017      -0.21259935
C        7.40977337       2.80578334      -0.18069831
C        7.38025253       2.86780471       3.46178394
C        8.60967425       3.58214694       3.50940183
C        8.62472554       2.07949869      -0.22912866
C        9.81309516       2.80861217      -0.12893331
C        9.86754406       2.88480138       3.57282825
C       11.07726551       3.60242205       3.63201980
C        2.47319469       4.26727595       0.03184386
C        3.70364186       4.92829924       0.01227767
C        3.69222891       5.03228674       3.60289139
C        4.89876853       5.73340473       3.50895320
C        4.98829832       4.19113407      -0.11703327
C        6.18083083       4.94790585      -0.18809528
C        6.18017416       4.99605913       3.52606325
C        7.36594271       5.75591413       3.46991253
C        7.38389974       4.19894516      -0.18351137
C        8.64522251       4.89062910      -0.15199387
C        8.56460518       5.03893337       3.50106027
C        9.87209247       5.75188829       3.53360911
C        9.85372132       4.19366908      -0.09078595
C       11.11649943       4.94681730       0.00851707
C       11.11712751       5.04335163       3.59612151
C       12.30316327       5.75010560       3.64303638
C        3.70095008       6.38364709      -0.13130957
C        4.94826081       7.07307704      -0.15804397
C        4.91946467       7.13776061       3.48871653
C        6.16146283       7.85915766       3.54031687
C        6.19209983       6.34198366      -0.14253518
C        7.38080863       7.08671342      -0.23993817
C        7.37211211       7.15995251       3.42059774
C        8.58737192       7.85915865       3.40927747
C        8.65002039       6.38479874      -0.20312488
C        9.87752336       7.08989228      -0.11139138
C        9.82365424       7.16428598       3.48604151
C       11.08184055       7.86636138       3.50231347
C       11.07921581       6.34253089       0.01121279
C       12.34327079       7.15704381      -0.04111817
C       12.33728380       7.11290059       3.56939401
C       13.57770535       7.85670055       3.45239624
64
Lattice="9.860000170089029 0.0 0.0 4.930000085044514 8.53900664730135 0.0 0.0 0.0 29.999997077512198" Properties=species:S:1:pos:R:3 energy=-16265.365456895728 pbc="T T T"
C        4.96050693       8.47809058      -0.18321951
C        1.25994336       0.64235239      -0.12026144
C        9.80700563       0.09725214       3.55893354
C        1.23069268       0.78573454       3.59849975
C        7.43434547       8.51358954      -0.24015016
C        3.73144213       0.68117022      -0.22607699
C        2.46863838       0.05669796       3.75242815
C        3.66710859       0.79828533       3.71828889
C        9.86569038       8.47640649      -0.31938118
C        6.16101322       0.56406695      -0.32204634
C        4.89503751       0.07655304       3.68132769
C        6.15789647       0.81921023       3.77147274
C       12.38042820       8.41314769      -0.32518675
C        8.67172028       0.65571072      -0.22748006
C        7.39222750       0.04588154       3.77431637
C        8.56676156       0.75710899       3.62110281
C        1.26240737       2.07537425      -0.25188849
C        2.46994680       2.74818319      -0.43967318
C       11.07334911       2.13904125       3.61701978
C        2.46476932       2.89863200       3.63915351
C        3.72362611       2.08034665      -0.42867238
C        4.94670687       2.76022620      -0.32101893
C        3.67091455       2.18767275       3.70078147
C        4.89203514       3.02550654       3.70744782
C        6.17936761       2.04845743      -0.15293748
C        7.41014607       2.80600618      -0.13002678
C        6.13020861       2.27291837       3.72327115
C        7.37714268       2.86451838       3.69027761
C        8.67847043       2.07473631      -0.27904096
C        9.84246416       2.81863585      -0.26319397
C        8.63432327       2.14125187       3.71193609
C        9.84886330       2.86066903       3.63510401
C        2.47422309       4.24455062      -0.53835897
C        3.73667877       4.91456623      -0.42173784
C       12.27183115       4.40766460       3.66437046
C        3.69317645       5.03111340       3.71037427
C        5.00044584       4.17349059      -0.36213710
C        6.21928286       4.89936112      -0.36779871
C        4.94266920       4.37176336       3.77549562
C        6.16219740       5.04398662       3.71580022
C        7.40217131       4.21170795      -0.17751550
C        8.66373171       4.91687445      -0.23942151
C        7.33789594       4.28825704       3.78215704
C        8.62196080       4.99271659       3.68544326
C        9.85941843       4.19621591      -0.44640559
C       11.12039413       4.94233692      -0.57006281
C        9.86540542       4.32626932       3.60922545
C       11.00365370       5.10849567       3.67184730
C        3.66552507       6.34248652      -0.44158405
C        4.94395494       7.01404916      -0.23088472
C       13.53340239       6.46459276       3.76565534
C        4.94250947       7.22080843       3.72921673
C        6.15271603       6.32327826      -0.17749578
C        7.37731326       7.07642549      -0.18819585
C        6.15863203       6.46710016       3.80036945
C        7.41456040       7.19891825       3.89181405
C        8.62696278       6.40340653      -0.25713894
C        9.89918184       7.03242919      -0.35716963
C        8.64652206       6.43640105       3.84825355
C        9.82010168       7.19802789       3.73837864
C       11.07829785       6.28735137      -0.51190360
C       12.33545576       7.07081713      -0.52509924
C       11.04332344       6.50333172       3.71155747
C       12.29120802       7.09076588       3.84184554
64
Lattice="9.860000170089029 0.0 0.0 4.930000085044514 8.53900664730135 0.0 0.0 0.0 29.999997077512198" Properties=species:S:1:pos:R:3 energy=-16261.924286380177 pbc="T T T"
C        4.94739806       8.35837736      -0.30733423
C        1.32750901       0.59984494      -0.30893254
C        1.21883603       0.88851715       3.79880959
C        2.44908304       1.49036368       3.74913787
C        7.47199391       8.40470457      -0.27756689
C        3.72421278       0.56385200      -0.32381325
C        3.64784806       0.88644853       3.78297936
C        4.89151946       1.57697490       3.71724669
C        9.89000514       8.38937720      -0.39630989
C        6.22242327       0.61404531      -0.34759360
C        6.07785299       0.81324394       3.87722716
C        7.30635873       1.51908881       3.88430368
C       12.35904679       8.34428348      -0.24366723
C        8.62858179       0.50603296      -0.27608888
C        8.59641847       0.83585193       3.77327614
C        9.90467386       1.60143263       3.61200499
C        1.25332138       2.03408944      -0.20932879
C        2.56343834       2.73023898      -0.52433805
C        2.43078880       2.97620556       3.53727112
C        3.61607125       3.74318736       3.44129782
C        3.73867838       1.91019755      -0.44172702
C        4.93914425       2.76215087      -0.37863091
C        4.97940460       3.05007963       3.68595696
C        6.15518596       3.64769917       3.96419631
C        6.12763712       1.98643409      -0.24865441
C        7.41018749       2.66475970      -0.26581574
C        7.35683798       2.94284129       3.79586441
C        8.63167684       3.75517416       3.75578055
C        8.63232366       2.00054079      -0.36611660
C        9.88217827       2.70759154      -0.37781450
C        9.79857631       2.99627361       3.65691729
C       11.03345654       3.69779093       3.62015921
C        2.44856539       4.11339487      -0.46250007
C        3.66941090       4.80512121      -0.37846033
C        3.66038604       5.10281927       3.54254326
C        4.97142786       5.88339407       3.71676256
C        4.99193568       4.21306567      -0.40226533
C        6.19990204       4.89166835      -0.41290723
C        6.12908358       5.11425489       3.95868555
C        7.29948828       5.81227389       3.95274194
C        7.44163497       4.16358622      -0.28269409
C        8.69454618       4.83036676      -0.30892860
C        8.59912307       5.17767935       3.76904324
C        9.81623557       5.85794639       3.77021264
C        9.94405667       4.17352214      -0.48514948
C       11.11588713       4.86091599      -0.57455207
C       11.02543148       5.06524379       3.54073987
C       12.32619130       5.81001792       3.67431329
C        3.77521264       6.26326241      -0.55643235
C        5.00054543       7.03496419      -0.31589863
C        4.87522976       7.31168904       3.74357486
C        6.08823952       7.95612386       3.93702116
C        6.21363801       6.29137918      -0.24620420
C        7.38042015       6.98116310      -0.22670408
C        7.40060455       7.25089031       3.88077380
C        8.62933312       7.97098387       3.88497909
C        8.60758295       6.17976299      -0.29578620
C        9.85669017       6.95637605      -0.37192118
C        9.86703627       7.27047030       3.91496335
C       11.10701707       7.91204276       3.84322002
C       11.14121155       6.28493370      -0.42971656
C       12.36092217       6.84844651      -0.52321992
C       12.27490352       7.21951086       3.83827819
C       13.43544822       8.02872600       3.74679218
64
Lattice="9.860000170089029 0.0 0.0 4.930000085044514 8.53900664730135 0.0 0.0 0.0 29.999997077512198" Properties=species:S:1:pos:R:3 energy=-16261.991284344736 pbc="T T T"
C        4.98348073       8.46708682      -0.13853202
C        1.24404707       0.66186139      -0.18313471
C        1.18718445       0.73944085       3.50422237
C        2.43020805       1.41769054       3.49673173
C        7.42874006       8.51531701      -0.09706086
C        3.70563851       0.63755451      -0.09290684
C        3.60714894       0.63951665       3.44779457
C        4.97284770       1.40250516       3.46778079
C        9.91953584       8.49531600      -0.05764649
C        6.18432817       0.80670183      -0.08689520
C        6.21574016       0.73645327       3.47535623
C        7.39087076       1.37397130       3.40853402
C        7.37405650       0.03745617      -0.07965796
C        8.62639879       0.72437477      -0.07287033
C        8.62681192       0.71940435       3.44216057
C        9.84613602       1.48488940       3.55284499
C        1.22312316       2.10025201      -0.16543305
C        2.39569509       2.88868918       0.03161609
C        2.51788810       2.89485365       3.50768421
C        3.65507051       3.62217361       3.60289139
C        3.67215888       2.16824460       0.03434041
C        4.87243938       2.86376704       0.00474069
C        4.93089242       2.81020456       3.42255889
C        6.21144515       3.39789903       3.31453569
C        6.14617490       2.08468307      -0.15419561
C        7.31072572       2.82291903      -0.19417594
C        7.43548036       2.77885864       3.36923601
C        8.59107731       3.63437536       3.48607701
C        8.58321297       2.13953425      -0.04502470
C        9.89476259       2.79029821      -0.05560744
C        9.84272348       2.98728228       3.48570430
C       11.11029453       3.63539192       3.47354396
C        2.49479795       4.17527032       0.16828457
C        3.70947996       5.01046262       0.05193656
C        3.69930346       4.90037571       3.65256114
C        4.92075239       5.68048512       3.50038781
C        4.89324792       4.35345235       0.06091705
C        6.18057842       4.97566963      -0.01406825
C        6.08553689       4.91161217       3.35127996
C        7.38675815       5.79097431       3.40675134
C        7.46502979       4.26190422      -0.19804895
C        8.70777238       4.99506228      -0.17829345
C        8.66658322       5.06011561       3.49414841
C        9.83141307       5.71693952       3.42285863
C        9.88312779       4.24893142       0.06159148
C       11.13553219       4.94038957       0.27894828
C       11.06542857       5.02958707       3.47857749
C       12.38205215       5.64658053       3.49936632
C       13.55284138       6.39631818       0.04584801
C        4.91306356       7.14327432      -0.15211022
C        4.98852806       7.10693135       3.37957915
C        6.11333322       7.85560511       3.35773235
C        6.14738571       6.43809796      -0.16475271
C        7.45498935       7.05622235      -0.13384852
C        7.35459582       7.15779810       3.35935333
C        8.58777815       7.81620257       3.35543990
C        8.59441985       6.30949397      -0.10462446
C        9.82839098       7.08991397       0.00403373
C        9.82898061       7.10193331       3.30006318
C       11.07490897       7.85653096       3.37589644
C       11.07368830       6.43556098       0.19663996
C       12.34178686       7.11752099       0.09632333
C       12.37472124       7.18872399       3.35342155
C       13.61686434       7.84776936       3.38859513
64
Lattice="9.860000170089029 0.0 0.0 4.930000085044514 8.53900664730135 0.0 0.0 0.0 29.999997077512198" Properties=species:S:1:pos:R:3 energy=-16262.768952225611 pbc="T T T"
C        4.92447454       8.24500018      -0.43852449
C        1.29204456       0.48739361      -0.48379570
C        1.19817144       0.98144963       3.80102514
C        2.44992607       1.58732495       3.90167799
C        7.46756381       8.40874816      -0.50743603
C        3.73874444       0.53472161      -0.32615204
C        3.63358458       0.93145548       3.60963169
C        4.88713866       1.67523473       3.57724947
C        9.89509191       8.35722867      -0.39674471
C        6.24781179       0.47224865      -0.34361312
C        6.10064438       0.95701162       3.46282417
C        7.35977232       1.63811775       3.55560579
C       12.42804017       8.39528827      -0.34519368
C        8.70448900       0.52058730      -0.41596974
C        8.59188977       0.83403572       3.63646666
C        9.80425567       1.61289883       3.71603391
C        1.21667768       1.89904392      -0.20582257
C        2.50092397       2.64601091      -0.11135490
C        2.47403377       3.04718572       4.12985023
C        3.64641343       3.79293402       4.01298950
C        3.68674971       1.91290314      -0.26031288
C        5.01195443       2.57741390      -0.21924795
C        4.92792456       3.06988049       3.75588901
C        6.09528350       3.83015059       3.69120544
C        6.19783243       1.86256291      -0.34794955
C        7.46189333       2.61415424      -0.49210866
C        7.29084303       3.13133392       3.52177810
C        8.62364686       3.79413990       3.64484865
C        8.69812339       1.97201482      -0.52238478
C        9.81403975       2.64006928      -0.28796623
C        9.81576229       3.04400982       3.98942410
C       11.05669853       3.72793197       4.17682524
C        2.57408714       4.05406922       0.11429022
C        3.81524917       4.72624417       0.09706283
C        3.58749796       5.25401152       4.00750734
C        4.94372126       5.87656602       3.58706510
C        5.04831319       3.99560238      -0.22692593
C        6.20162952       4.73310081      -0.40077647
C        6.11757499       5.24730672       3.57291995
C        7.31563501       5.93828370       3.29393420
C        7.40140913       4.03364325      -0.42341602
C        8.64226649       4.77097899      -0.30499051
C        8.57031116       5.18946303       3.48428348
C        9.82936811       5.84301342       3.57748907
C        9.93223059       4.06258530      -0.25870471
C       11.09229905       4.74904936       0.04657272
C       11.10038721       5.16406071       3.92520395
C       12.23829039       6.01245753       3.96316889
C        3.65854320       6.23168773      -0.15691697
C        4.91818386       6.88513064      -0.30868012
C        4.93488177       7.26298952       3.54149218
C        6.12170830       8.07452275       3.53423226
C        6.17851275       6.11926499      -0.37369499
C        7.38479010       6.92662054      -0.49180300
C        7.35785060       7.33488962       3.29217518
C        8.62184248       8.08026718       3.42829248
C        8.64325249       6.18150723      -0.30099721
C        9.90572986       6.86247631      -0.20395903
C        9.86842751       7.28907316       3.49239924
C       11.08877311       8.06738115       3.53315851
C       11.14131311       6.19600241       0.04911956
C       12.29592800       6.88761734      -0.16816427
C       12.26130264       7.41260713       3.75161076
C       13.52625094       7.97072652       3.64830261
64
Lattice="9.860000170089029 0.0 0.0 4.930000085044514 8.53900664730135 0.0 0.0 0.0 29.999997077512198" Properties=species:S:1:pos:R:3 energy=-16263.84579906782 pbc="T T T"
C        4.92142780       8.29431694      -0.18362377
C        1.31111479       0.47914375      -0.21251949
C        1.16243092       0.88920341       3.64374729
C        2.43882470       1.62514002       3.72432518
C        7.41337424       8.25196232      -0.18139541
C        3.67211845       0.43673983      -0.29453497
C        3.67385776       0.95501694       3.65953413
C        4.87776082       1.67954257       3.61950352
C        9.86883769       8.40000924      -0.21929331
C        6.20251889       0.52141653      -0.34089077
C        6.10379761       0.97360994       3.63231166
C        7.38636178       1.65781902       3.60946012
C       12.35049127       8.25194556      -0.32121120
C        8.61845754       0.41974612      -0.21562046
C        8.60708995       1.01066777       3.55509997
C        9.88253224       1.69711605       3.77023334
C        1.33030432       1.89207093      -0.39442860
C        2.56339003       2.60155020      -0.22219806
C        2.40116443       3.10131614       3.74849401
C        3.62748617       3.75430648       3.78097285
C        3.71930151       1.82467586      -0.17274129
C        5.01289508       2.65599909      -0.22310222
C        4.88705781       3.08761271       3.64910718
C        6.13685129       3.73999568       3.53523503
C        6.15988721       1.95402328      -0.29520052
C        7.50364155       2.62151473      -0.22650590
C        7.38491335       3.06150244       3.67527562
C        8.60924732       3.77510615       3.67012575
C        8.72491991       1.93129697      -0.15910885
C        9.91305585       2.63500814      -0.29646950
C        9.85513525       3.03616717       3.64910817
C       10.99811140       3.85616620       3.62500836
C        2.43115362       4.02933147      -0.30594693
C        3.60728895       4.65264025      -0.37957845
C        3.64539489       5.18331729       3.75270916
C        4.91847177       5.95379447       3.70831550
C        4.95254399       4.04538848      -0.16096056
C        6.21163249       4.76016158      -0.19562536
C        6.13383413       5.18220311       3.55074875
C        7.36451695       5.88738934       3.62301466
C        7.46581169       4.04452573      -0.29322162
C        8.69477493       4.80007289      -0.32327588
C        8.61029050       5.23096870       3.63509415
C        9.85310606       6.00161843       3.64760945
C        9.95489380       4.05043680      -0.15858233
C       11.11690961       4.79447044      -0.19590736
C       11.04219644       5.26608509       3.70768643
C       12.30133523       5.88649504       3.77184940
C        3.79186618       6.17688387      -0.28632257
C        5.01282606       6.88972146      -0.23503578
C        4.84370438       7.38767119       3.56021435
C        6.12883412       7.95555889       3.53429438
C        6.19461314       6.15869809      -0.21246230
C        7.41705991       6.85658397      -0.17386730
C        7.38161321       7.25613780       3.62801763
C        8.53377395       8.06968937       3.55104751
C        8.67363608       6.18324259      -0.29544899
C        9.86396783       6.86477862      -0.21318405
C        9.79548816       7.39786742       3.55763005
C       11.05226942       8.07686055       3.68532592
C       11.11739965       6.18755338      -0.27069940
C       12.38091923       6.86983187      -0.31296429
C       12.28686075       7.28436600       3.71462491
C       13.46266084       8.17763666       3.59620434
64
Lattice="9.860000170089029 0.0 0.0 4.930000085044514 8.53900664730135 0.0 0.0 0.0 29.999997077512198" Properties=species:S:1:pos:R:3 energy=-16260.34864548379 pbc="T T T"
C        4.96016380       8.21149392       0.21571018
C        1.21876406       0.40291017       0.16309328
C        1.21052109       0.96291874       3.42144865
C        2.37111016       1.70383958       3.19465879
C        7.40815140       8.23487889       0.21888707
C        3.73453817       0.48051922       0.15104731
C        3.61738658       1.04776503       3.46664394
C        4.86862849       1.65203218       3.60119941
C        9.93145559       8.37979525      -0.00876948
C        6.25316675       0.47343087       0.01811972
C        6.07088591       0.96787043       3.75967131
C        7.35530672       1.72387412       3.69673394
C       12.35105724       8.23258446       0.07454653
C        8.68571556       0.40594114       0.23312097
C        8.58485170       1.01978235       3.50095969
C        9.87446676       1.68622173       3.26338102
C        1.26154561       1.82948951      -0.12057005
C        2.50064887       2.55307154      -0.40083168
C        2.44520116       3.07597693       2.77659577
C        3.68467516       3.81973942       2.89628237
C        3.74185034       1.85588374      -0.19770385
C        5.08371059       2.50786837      -0.12630266
C        4.85749063       3.20774893       3.27782099
C        6.10849393       3.89262059       3.59616095
C        6.25841622       1.86807169       0.14371049
C        7.48481783       2.55725809       0.20799572
C        7.36644655       3.19162388       3.62877290
C        8.55232849       3.83742333       3.50212219
C        8.67716300       1.90157597       0.25371259
C        9.98421251       2.59243266       0.03511540
C        9.82516282       3.13623829       3.13105587
C       11.04667485       3.84334031       2.76156321
C        2.54280925       4.00779427      -0.59287885
C        3.75138595       4.72172829      -0.62943184
C        3.72396923       5.29637797       3.08971782
C        4.85561723       5.96484161       3.45387228
C        4.98808042       3.91560918      -0.23197721
C        6.22296064       4.67490512       0.06048716
C        6.05933197       5.19517690       3.78871788
C        7.33014400       5.88933965       3.95641282
C        7.47619427       3.97439845       0.21511760
C        8.58926110       4.72323292      -0.06724422
C        8.61622425       5.23235009       3.80368241
C        9.84006719       6.01807280       3.45755696
C        9.87331018       3.96778239      -0.28176134
C       11.14854542       4.62842705      -0.52769538
C       10.98278008       5.28173587       2.96890718
C       12.29948943       6.07063054       3.15156862
C        3.81156055       6.17968510      -0.44658307
C        4.92424875       6.77082662      -0.00887203
C        4.85130940       7.36668517       3.53641428
C        6.06531797       8.08348549       3.80810757
C        6.10349589       6.10225649       0.24958027
C        7.44466495       6.88157907       0.23060963
C        7.34626116       7.33270465       3.95429687
C        8.56056850       8.06286724       3.86699248
C        8.72679725       6.11484870       0.04960763
C        9.85203033       6.85009412      -0.15777282
C        9.86369570       7.36653628       3.81642843
C       11.05402055       8.12002467       3.79057847
C       11.15923662       6.16501736      -0.37950450
C       12.37523987       6.91908158      -0.38826906
C       12.22599595       7.40972702       3.40395800
C       13.52038226       8.08964601       3.52342275
64
Lattice="9.860000170089029 0.0 0.0 4.930000085044514 8.53900664730135 0.0 0.0 0.0 29.999997077512198" Properties=species:S:1:pos:R:3 energy=-16257.397859480294 pbc="T T T"
C        5.06337532       8.29980107      -0.24862878
C        1.31817849       0.46175170      -0.22601092
C        1.18148931       1.01131261       3.35758149
C        2.36783171       1.76654425       3.73501046
C        7.45210432       8.26671091      -0.22716060
C        3.75574111       0.39162047      -0.17124750
C        3.62531204       1.01813277       3.34612614
C        4.94117837       1.64523667       3.19979684
C        9.89177994       8.25858528      -0.19758159
C        6.13722202       0.47729697      -0.08768991
C        6.14647662       0.89406833       3.05509837
C        7.31854470       1.74777673       3.11859382
C       12.32395801       8.19775599       0.00833564
C        8.65608823       0.39171611      -0.29939496
C        8.52931624       1.00701759       3.31720972
C        9.82911076       1.75375485       3.40506922
C        1.35090383       1.83484546       0.13892149
C        2.54345902       2.53819477       0.36651198
C        2.32892711       3.08313134       4.09432366
C        3.60256108       3.71073909       3.91259695
C        3.75077956       1.81797993       0.08108174
C        5.00286647       2.61072099       0.13999228
C        4.84831590       3.07774285       3.49729670
C        6.11157715       3.88659120       3.21111612
C        6.14442968       1.88635509      -0.13069627
C        7.41295716       2.61096354      -0.24895219
C        7.36180939       3.16338385       3.09027491
C        8.53282344       3.80387369       3.32201450
C        8.70334426       1.88795241      -0.36184623
C        9.96452307       2.51182124       0.12109165
C        9.77007598       3.14539231       3.69336675
C       10.94362109       3.86988836       4.07936012
C        2.49521700       3.92747175       0.78103921
C        3.71606743       4.73503929       0.67557665
C        3.77184940       5.27764200       3.90363816
C        4.85096232       5.92946985       3.32886325
C        4.96239117       4.02538352       0.28518867
C        6.21644910       4.71102920      -0.14128591
C        6.06332625       5.20085528       3.12429980
C        7.43315438       5.91622787       2.87568483
C        7.50826589       4.01477318      -0.24708865
C        8.66603599       4.73988548      -0.02701640
C        8.58876711       5.21094403       3.08282667
C        9.74470916       6.00790319       3.34085104
C        9.89672275       3.88905226       0.23776207
C       11.11892499       4.63397133       0.59790154
C       10.93998669       5.33859948       3.77239860
C       12.27811986       5.99700099       3.88439341
C        3.86840246       6.11828491       0.29276904
C        5.05889888       6.86191133       0.06190108
C        4.82909284       7.44826188       3.10150940
C        6.06183936       8.24393628       3.00306321
C        6.14548175       6.11197451      -0.33588584
C        7.62786868       6.81993928      -0.36234712
C        7.31494383       7.41576726       2.79088291
C        8.54251582       8.18708549       2.98218959
C        8.82040218       6.06166977      -0.10375580
C        9.93876678       6.79216366       0.09763076
C        9.79838799       7.45326977       3.19715633
C       11.02417729       8.07826560       3.07365884
C       11.15683373       6.16862711       0.41190940
C       12.48291502       6.83201384       0.33333407
C       12.25291474       7.40710919       3.40592014
C       13.47493752       8.04950299       3.28347471
64
Lattice="9.860000170089029 0.0 0.0 4.930000085044514 8.53900664730135 0.0 0.0 0.0 29.999997077512198" Properties=species:S:1:pos:R:3 energy=-16263.844326659837 pbc="T T T"
C        5.03943327       8.30797008       0.07106990
C        1.39711075       0.51042164       0.26672681
C        1.08306777       1.00038379       3.41959990
C        2.40189604       1.66000202       3.31036786
C        7.51450333       8.30201070       0.07714366
C        3.79407975       0.45164914      -0.11648407
C        3.62100421       0.97211812       3.59891288
C        4.83925555       1.69899832       3.41370461
C       10.00590352       8.23225021       0.07062127
C        6.20363504       0.49419997       0.09192380
C        6.11393763       0.99243761       3.62990385
C        7.30326564       1.66278747       3.61760843
C       12.44008219       8.33389399      -0.07298668
C        8.73780693       0.42039590       0.11514114
C        8.47565615       0.90859310       3.56088779
C        9.70925654       1.68552167       3.42282314
C        1.33999374       1.87079995      -0.04655399
C        2.49800048       2.61570226      -0.30527349
C        2.38438961       3.03065248       3.07132596
C        3.62309157       3.79981236       3.12723611
C        3.75852853       1.89176625      -0.22949150
C        5.02426859       2.63037690      -0.11065582
C        4.82312163       3.09618105       3.36778955
C        6.09109990       3.74346936       3.61727910
C        6.16273379       1.88779366       0.12582346
C        7.38952487       2.59986315       0.14003862
C        7.37104526       3.04355922       3.74657624
C        8.49623890       3.81372383       3.47943236
C        8.67353945       1.91799484       0.08459683
C        9.89924889       2.57589645      -0.19446878
C        9.76989554       3.10655180       3.17657949
C       10.99643224       3.78453034       3.02828312
C        2.54737640       3.96690288      -0.49340131
C        3.75839838       4.72320926      -0.39206220
C        3.63796440       5.25206417       3.10130135
C        4.81632020       5.86621105       3.50806382
C        5.04573381       4.08250349      -0.25648720
C        6.28163849       4.76394388      -0.01213076
C        6.02538694       5.18649419       3.71438137
C        7.31059951       5.94200191       3.84560515
C        7.50444219       4.01577890       0.01970718
C        8.76680026       4.72826054      -0.00024256
C        8.50621130       5.23529823       3.56741215
C        9.74995369       5.92581376       3.44445401
C        9.96238050       4.02315319      -0.22605036
C       11.21636447       4.72321912      -0.43637994
C       10.97220227       5.25965440       3.20105300
C       12.24460572       5.96271777       3.18464596
C        3.79657828       6.18022050      -0.26514526
C        4.99876866       6.93127840      -0.14220980
C        4.93189419       7.31804677       3.56653165
C        6.08400662       8.08513408       3.60784703
C        6.30281382       6.21656939       0.07294724
C        7.52964730       6.85731164       0.23381413
C        7.29019326       7.44294142       3.86609818
C        8.55919796       8.01520301       3.84258011
C        8.68131110       6.19478963       0.05257648
C        9.93824617       6.87282832      -0.09054635
C        9.78397661       7.34063011       3.66888240
C       10.98148842       8.09148096       3.63537220
C       11.12882542       6.14991086      -0.39586126
C       12.46499644       6.90274356      -0.25131563
C       12.23620302       7.32156285       3.52690037
C       13.52443670       8.01350216       3.54617766
64
Lattice="9.860000170089029 0.0 0.0 4.930000085044514 8.53900664730135 0.0 0.0 0.0 29.999997077512198" Properties=species:S:1:pos:R:3 energy=-16262.636237952678 pbc="T T T"
C        5.07086596       8.28394520       0.13995974
C        1.39011410       0.50514457       0.15848471
C        1.13640150       1.00479219       3.43787541
C        2.36604705       1.63699371       3.28030472
C        7.54065501       8.34229077       0.22248499
C        3.80042861       0.48690258      -0.07645839
C        3.61927575       0.96367106       3.58789433
C        4.87049104       1.60421907       3.52196642
C        9.87978623       8.30702155       0.10101274
C        6.24856608       0.42548267       0.09791670
C        6.05152580       0.91033931       3.64930241
C        7.30536089       1.66097323       3.68287571
C       12.39730064       8.33544793      -0.04045459
C        8.75199054       0.51142736       0.06638640
C        8.55630405       0.91630066       3.70029932
C        9.72566556       1.64307043       3.43109272
C        1.31918421       1.93768428      -0.11405950
C        2.57946380       2.58317905      -0.44572229
C        2.36654498       3.06304948       2.99510225
C        3.61795155       3.77773582       3.02275462
C        3.76448890       1.89460593      -0.17111537
C        4.97582148       2.57789409      -0.14844723
C        4.89556699       3.03727938       3.37112025
C        6.04208584       3.78701309       3.67836969
C        6.23567511       1.90414647       0.12903684
C        7.49119133       2.63979714       0.17521220
C        7.24910565       3.11109036       3.74429858
C        8.61502429       3.77217971       3.56858352
C        8.71086941       1.90406167       0.12542808
C        9.91384760       2.63824123      -0.21853902
C        9.70395088       3.02482719       3.22507492
C       10.96157517       3.74752083       2.97926807
C        2.55132927       4.05824197      -0.66344293
C        3.83364990       4.73694917      -0.54232860
C        3.56385861       5.23893657       3.09540113
C        4.87390556       5.92705513       3.49299873
C        5.01250265       3.97593661      -0.30712520
C        6.25099164       4.81300921      -0.00360087
C        6.10589089       5.23690541       3.70257205
C        7.25127288       5.94082758       3.96153509
C        7.46809527       4.05669001       0.05831894
C        8.71872191       4.74822309      -0.01461351
C        8.52543239       5.18935063       3.57038691
C        9.79106989       5.89606318       3.46843155
C        9.94406160       4.05434629      -0.25962662
C       11.10997704       4.72218579      -0.62599662
C       11.01266476       5.22097756       3.03635550
C       12.18581546       6.00347704       3.11052341
C        3.77700815       6.19455004      -0.37061177
C        5.07255695       6.85251968      -0.01866202
C        4.85584894       7.32030175       3.68931725
C        6.11802953       8.12210513       3.69832633
C        6.29460833       6.19158218       0.08865225
C        7.49253722       6.96907376       0.27703051
C        7.34168415       7.33809116       3.95251714
C        8.56824648       8.14127396       3.87157344
C        8.75731691       6.14944941       0.08022688
C        9.96084332       6.82788348      -0.08348659
C        9.76165949       7.30358609       3.75278410
C       11.00466139       8.01780014       3.60264390
C       11.22394090       6.12287178      -0.45920387
C       12.33171980       6.88024304      -0.33362395
C       12.20387208       7.38750160       3.52067772
C       13.44310944       8.05734860       3.57474405
64
Lattice="9.860000170089029 0.0 0.0 4.930000085044514 8.53900664730135 0.0 0.0 0.0 29.999997077512198" Properties=species:S:1:pos:R:3 energy=-16268.288197350388 pbc="T T T"
C        4.95932767       7.02471275       0.07357039
C        6.20463780       7.72857774       0.07112610
C        9.81944106       1.53667117       3.49630380
C       11.04541869       2.27644332       3.42640330
C        7.42575544       6.99325146       0.22474786
C        8.69025018       7.72385283       0.11023776
C        2.43461448       1.58018828       3.43473698
C        3.65496107       2.21604588       3.30582733
C        9.94394131       6.98326821       0.11536792
C       11.16526403       7.69930833       0.08010856
C        4.87549893       1.50095923       3.34374396
C        6.11863790       2.23918533       3.33913146
C       12.38974393       7.02732368       0.00625124
C       13.61271525       7.71159882       0.00421909
C        7.32215642       1.53418940       3.38522104
C        8.56565724       2.23246180       3.49372147
C        1.28265094       0.58508945      -0.08430497
C        2.52587667       1.31747843      -0.06647415
C       11.03211459       3.71673594       3.29111128
C       12.27506720       4.38215876       3.11594049
C        3.74375628       0.59097390       0.06084803
C        5.00932773       1.28388936       0.14201555
C        3.60627929       3.68391890       3.21546043
C        4.83082229       4.42519864       3.29252323
C        6.22914286       0.59648958       0.09790290
C        7.48332305       1.31956777       0.11190016
C        6.07952623       3.69306208       3.43991150
C        7.30672749       4.37186294       3.53073985
C        8.69141957       0.60847441      -0.01247191
C        9.89838318       1.27147364      -0.14101181
C        8.56473829       3.66711450       3.47526651
C        9.80311389       4.38505069       3.35971914
C        2.55806957       2.76381819      -0.16915323
C        3.78471472       3.44857844      -0.01679651
C       12.25467179       5.80222260       3.04278126
C       13.46616114       6.53967075       3.16717207
C        4.99734586       2.71172190       0.13307155
C        6.17395447       3.44337434       0.27411392
C        4.88704499       5.82229460       3.25970028
C        6.10747539       6.50336130       3.47757375
C        7.43042612       2.72466611       0.16406350
C        8.67897822       3.42193574       0.04179950
C        7.33271549       5.80048921       3.49831721
C        8.58168270       6.51280323       3.46816435
C        9.91554352       2.72909916      -0.10983547
C       11.15135749       3.43029505      -0.22244653
C        9.79295217       5.78944897       3.30626906
C       11.01151508       6.51278351       3.09561114
C        3.78463190       4.88789986       0.05020416
C        4.98671185       5.58813143       0.18777187
C       13.50208703       7.94715225       3.27762083
C        9.81482855       0.11452094       3.43515701
C        6.24764121       4.86470716       0.25880627
C        7.45508598       5.57200146       0.29812598
C        6.09811332       7.94383535       3.51869685
C        2.37378222       0.12933855       3.49661439
C        8.71649059       4.85578189       0.11214863
C        9.94668239       5.56007283       0.04785157
C        8.53458148       7.94170756       3.43406354
C        4.85761585       0.08528802       3.29752423
C       11.17790258       4.86554231      -0.14542416
C       12.38825211       5.60293326      -0.01319465
C       11.03407377       7.90141565       3.17388771
C        7.36662502       0.13952295       3.21994969
64
Lattice="9.860000170089029 0.0 0.0 4.930000085044514 8.53900664730135 0.0 0.0 0.0 29.999997077512198" Properties=species:S:1:pos:R:3 energy=-16267.42392556682 pbc="T T T"
C        5.09708469       6.64891856      -0.27147243
C        6.31607552       7.38001687      -0.44955389
C        9.69460261       1.83575554       3.81098965
C       10.90779478       2.56983551       3.88515756
C        7.56685697       6.69308052      -0.50290734
C        8.78304855       7.36161318      -0.44557735
C        2.24194219       1.85308054       3.99449707
C        3.50475579       2.58192683       3.91635361
C       10.02179488       6.68233805      -0.26979228
C       11.29810584       7.40539947      -0.17028220
C        4.73645814       1.84752345       3.81155364
C        5.96016994       2.58888207       3.65861222
C       12.52141240       6.65474681      -0.08353392
C       13.69303185       7.38919850      -0.18804302
C        7.22471792       1.89841091       3.62304129
C        8.49524106       2.56450421       3.63850965
C        1.42520288       0.27037698      -0.35809943
C        2.66820676       0.97453086      -0.46073414
C       10.88041652       3.98678359       3.82090388
C       12.13707255       4.68664246       3.89766694
C        3.90665137       0.26450436      -0.45388243
C        5.10550217       0.94873020      -0.41479640
C        3.56763893       3.96124521       3.89437469
C        4.73748555       4.73960644       3.77645007
C        6.39686442       0.29987416      -0.29025671
C        7.61078426       1.02508407      -0.30833601
C        5.95534939       4.03738512       3.60187778
C        7.22973962       4.73347155       3.52566294
C        8.81354060       0.26455366      -0.28101099
C       10.05577540       1.02104542      -0.34121517
C        8.44390892       3.98076406       3.53732042
C        9.62854258       4.69960541       3.67311826
C        2.63323432       2.39800529      -0.32142319
C        3.92375256       3.12420514      -0.37369203
C       12.13187535       6.14406092       3.82439235
C       13.39434090       6.83769320       3.81857495
C        5.12340202       2.39423581      -0.48490495
C        6.34127670       3.12601051      -0.53402353
C        4.71541690       6.15257404       3.78695196
C        5.99174265       6.81510788       3.78282456
C        7.55686781       2.41640700      -0.47205244
C        8.81616731       3.10933528      -0.43608513
C        7.22929691       6.13991676       3.55141233
C        8.47080503       6.86053685       3.60542147
C       10.05596965       2.43216526      -0.28227011
C       11.23507382       3.12378412      -0.25007130
C        9.71000393       6.13789349       3.59395034
C       10.92583957       6.85703359       3.71961900
C        3.86223602       4.51412500      -0.31598047
C        5.13967693       5.24134931      -0.35751966
C       13.34627931       8.28080972       3.77931243
C        9.65882166       0.42077058       3.84809086
C        6.35310771       4.53652790      -0.54974234
C        7.58996684       5.23862006      -0.55599949
C        5.97554169       8.22191792       3.82003620
C        2.28215324       0.46583867       3.89993376
C        8.79837494       4.54132479      -0.44611965
C       10.04981898       5.28766568      -0.24713893
C        8.46526371       8.29050211       3.75609016
C        4.75100559       0.41996206       3.73791423
C       11.26587548       4.52640464      -0.17842361
C       12.51710753       5.20153759      -0.14211021
C       10.90458535       8.28523095       3.74425717
C        7.15935500       0.47200905       3.70218258
64
Lattice="9.860000170089029 0.0 0.0 4.930000085044514 8.53900664730135 0.0 0.0 0.0 29.999997077512198" Properties=species:S:1:pos:R:3 energy=-16263.530919546167 pbc="T T T"
C        5.13387629       8.47140353      -0.27849866
C        1.35335602       0.56653195      -0.28334781
C        1.10638569       0.88030180       3.76983303
C        2.39618809       1.60774501       3.73993455
C        7.54754715       8.41100708      -0.28127918
C        3.78937160       0.55172025      -0.33518085
C        3.65666783       0.84740095       3.64974512
C        4.87962041       1.57401986       3.41283791
C        9.91866126       8.38782918      -0.20843745
C        6.27485875       0.50982906      -0.30167558
C        6.06250886       0.85077406       3.54933976
C        7.28295306       1.58845392       3.63640947
C       12.42847204       8.38325414      -0.30112342
C        8.74711378       0.59904628      -0.31961486
C        8.50057730       0.85952579       3.70541173
C        9.67071183       1.54126593       3.82584867
C        1.33074506       2.05852647      -0.19987897
C        2.59955552       2.74103962      -0.31219817
C        2.36274297       3.06614749       3.81279995
C        3.57783121       3.71050738       3.78621640
C        3.81932234       1.97773264      -0.21397778
C        4.96812378       2.70043318      -0.17391561
C        4.83117725       2.94945340       3.60725937
C        6.00042635       3.70999071       3.64887843
C        6.30156752       1.89351838      -0.18259241
C        7.49108287       2.66828367      -0.25890290
C        7.27163082       2.99661083       3.67210563
C        8.52850476       3.66345348       3.73399981
C        8.76078369       1.95430035      -0.33419879
C        9.97880528       2.68144874      -0.41814486
C        9.71485111       2.93309862       3.75876616
C       10.99236203       3.70868328       3.78583088
C        2.57435336       4.11992318      -0.20187463
C        3.82318943       4.78990033      -0.18825501
C        3.52363276       5.11883092       3.66307190
C        4.80110425       5.84355572       3.60798014
C        5.05845124       4.07559163      -0.20512843
C        6.20810064       4.87516764      -0.20947965
C        6.03816156       5.13598831       3.55747229
C        7.32091307       5.82897870       3.54484656
C        7.41915713       4.22265255      -0.31282724
C        8.69778617       4.90562518      -0.26127521
C        8.52308275       5.09815549       3.51749294
C        9.77260606       5.72235463       3.57267641
C        9.92156207       4.07809903      -0.24251558
C       11.22681607       4.83129162      -0.22689832
C       11.01361427       5.05766835       3.65277215
C       12.19719489       5.82621100       3.65901451
C        3.81016634       6.19874645      -0.21737554
C        5.15480119       6.94655450      -0.23920262
C        4.83023266       7.33631538       3.63045108
C        6.12122122       8.03256844       3.55378267
C        6.26728134       6.28652905      -0.21829054
C        7.52903204       7.00859165      -0.22677705
C        7.31678075       7.32788606       3.55259454
C        8.52559113       8.03297763       3.61916631
C        8.73759888       6.28864106      -0.22093401
C        9.98707388       6.88500838      -0.16407632
C        9.68014292       7.25969036       3.48535822
C       10.91614028       7.95860957       3.56863578
C       11.18949794       6.23498590      -0.15327863
C       12.41415433       6.97291817      -0.19079791
C       12.23740200       7.29266713       3.78127260
C       13.44478170       7.99766897       3.62015033
64
Lattice="9.860000170089029 0.0 0.0 4.930000085044514 8.53900664730135 0.0 0.0 0.0 29.999997077512198" Properties=species:S:1:pos:R:3 energy=-16266.006338728246 pbc="T T T"
C        5.07458417       8.49773367      -0.24317620
C        1.37109711       0.73869741      -0.34336662
C        1.14250090       0.71305155       3.48704329
C        2.33161692       1.52119491       3.63872164
C        2.57728572       0.02478212      -0.36973423
C        3.80139982       0.62700727      -0.32697338
C        3.58207496       0.76466471       3.69292601
C        4.82179842       1.48571567       3.75037826
C        9.96174354       8.44984069      -0.48759476
C        6.25517622       0.64529954      -0.37554374
C        6.06046981       0.75704588       3.69518001
C        7.21669090       1.46129442       3.53965329
C       12.44113918       8.48494328      -0.27423816
C        8.77131614       0.65065550      -0.25719317
C        8.46727515       0.80997929       3.43582552
C        9.77438973       1.44830190       3.38379923
C        1.42383431       2.11611971      -0.12291673
C        2.59038966       2.78597953      -0.10923894
C        2.36658541       2.86640854       3.74087125
C        3.57949558       3.59638083       3.84748841
C        3.83870710       2.07193705      -0.21025366
C        5.06727988       2.78148041      -0.29942553
C        4.77092969       2.86283823       3.74034176
C        6.05224854       3.58002605       3.76111777
C        6.31588030       2.09652592      -0.37815861
C        7.54115590       2.83809259      -0.27890884
C        7.21274295       2.86670828       3.52316737
C        8.49617382       3.55847998       3.59587797
C        8.78116529       2.09555964      -0.17875885
C       10.00569745       2.82141144      -0.02470127
C        9.70012717       2.86954402       3.50990764
C       10.92832034       3.53648330       3.67322770
C        2.62827277       4.19893826       0.00942123
C        3.84591969       4.89679851      -0.17487105
C        3.57402032       5.02420154       3.91719467
C        4.74658140       5.78861679       3.68280472
C        5.03665571       4.17465900      -0.27364261
C        6.28476016       4.93630753      -0.34243682
C        6.02012269       5.09124461       3.67623303
C        7.28623249       5.77669703       3.68177632
C        7.52050610       4.21319582      -0.33689353
C        8.77854352       4.95710621      -0.34870975
C        8.53786782       5.03628300       3.68068581
C        9.75807242       5.73255283       3.80759190
C        9.96873231       4.23749579      -0.13853793
C       11.24027793       4.94570805      -0.01997833
C       10.93321485       5.03044095       3.75975906
C       12.15881780       5.68886514       3.89617808
C        3.85393488       6.37050174      -0.31730664
C        5.06276597       7.06775658      -0.25111843
C        4.75955519       7.19480663       3.52841486
C        6.03461886       7.83233058       3.52446199
C        6.33966360       6.35947037      -0.45379961
C        7.56984554       7.03150531      -0.49026977
C        7.26061621       7.15163166       3.60786083
C        8.50188868       7.90041388       3.72363005
C        8.76874662       6.35518817      -0.44189859
C        9.94474391       7.10013978      -0.34946799
C        9.72835142       7.14473065       3.81213834
C       10.95517011       7.86029452       3.78158122
C       11.18587439       6.37951575      -0.12810014
C       12.45792879       7.06855623      -0.21672379
C       12.18334553       7.18817578       3.75779101
C       13.38306697       7.93636344       3.50088574
64
Lattice="9.860000170089029 0.0 0.0 4.930000085044514 8.53900664730135 0.0 0.0 0.0 29.999997077512198" Properties=species:S:1:pos:R:3 energy=-16265.239946564561 pbc="T T T"
C        0.10835450       0.00195820      -0.22333196
C        1.32441987       0.65950386      -0.19698801
C        1.10844840       0.71125308       3.52549039
C        2.34840258       1.37403737       3.59584445
C        7.48305979       8.43995210      -0.35806492
C        3.80328209       0.69048891      -0.26512653
C        3.55611358       0.71893205       3.71071246
C        4.75873385       1.41626972       3.72524808
C        5.04796217       0.03816510      -0.32772570
C        6.34142066       0.71295788      -0.42454301
C        5.98211732       0.76244226       3.70323858
C        7.27764049       1.48019210       3.62303734
C       12.42583548       8.48840513      -0.26670807
C        8.71360753       0.73074137      -0.14948943
C        8.52287470       0.80795208       3.43845715
C        9.75270661       1.44879884       3.50640241
C        1.34313810       2.13388940      -0.22071709
C        2.66503282       2.83552800      -0.15124057
C        2.27115934       2.91962690       3.65274158
C        3.56482785       3.58111164       3.83197075
C        3.84638804       2.10366062      -0.27091928
C        5.06965516       2.79468690      -0.21412075
C        4.82999898       2.88533185       3.70856791
C        5.98944429       3.63262028       3.65088198
C        6.37653606       2.09091065      -0.34765572
C        7.60788542       2.74536816      -0.23372933
C        7.27170280       2.88743696       3.61562459
C        8.49437437       3.60473324       3.54773061
C        8.83250434       2.11554093      -0.18277778
C       10.04050522       2.82513063      -0.11563315
C        9.74215443       2.85174475       3.50778281
C       10.92863685       3.66260651       3.52376686
C        2.57700669       4.24030392      -0.18835065
C        3.82404824       4.92441144      -0.26977158
C        3.55805205       4.99160832       3.82497212
C        4.82953457       5.77428725       3.72789549
C        5.06295331       4.20660342      -0.26767830
C        6.29215418       4.87899233      -0.36285984
C        6.06456960       5.04716548       3.72415066
C        7.30400021       5.70628776       3.70094120
C        7.54048246       4.24306866      -0.30834291
C        8.74969907       4.92615567      -0.27475285
C        8.52320403       4.98313858       3.80103598
C        9.72471801       5.77562624       3.73969988
C       10.01100016       4.24114005      -0.12313957
C       11.20641770       4.95550495      -0.10554440
C       10.95865168       5.00730643       3.73193513
C       12.21259029       5.70492215       3.78126175
C        3.84544345       6.33030844      -0.29511769
C        5.13613325       7.08425236      -0.32099132
C        4.71279217       7.19301309       3.55232438
C        5.99628220       7.80823668       3.50674160
C        6.27794099       6.30492682      -0.32546973
C        7.49775119       7.09883037      -0.41736986
C        7.26086370       7.15251117       3.64666387
C        8.45380639       7.84943570       3.79151517
C        8.76447527       6.35988252      -0.41505572
C        9.99857360       7.07062584      -0.30461386
C        9.71180141       7.21047811       3.74762140
C       10.98258683       7.88091770       3.78875930
C       11.20114359       6.35814617      -0.25335073
C       12.41046472       7.06117700      -0.23607404
C       12.20600874       7.09381459       3.72831749
C       13.37593425       7.94060817       3.55592525
64
Lattice="9.860000170089029 0.0 0.0 4.930000085044514 8.53900664730135 0.0 0.0 0.0 29.999997077512198" Properties=species:S:1:pos:R:3 energy=-16262.804500769322 pbc="T T T"
C        5.00025653       8.46587798      -0.17811104
C        1.34516827       0.65085960      -0.07581946
C        1.05110856       0.71306239       3.55308261
C        2.25639498       1.45238394       3.55911299
C        7.48994404       8.50551617      -0.25901136
C        3.83194215       0.71162086      -0.26168638
C        3.48768222       0.69069498       3.74929070
C        4.78293720       1.46915186       3.67353139
C        5.11185694       0.02218106      -0.14033738
C        6.29729124       0.69523256      -0.36873640
C        6.06856388       0.73049685       3.72687793
C        7.27866100       1.52344003       3.67246552
C        7.56285874       0.01211498      -0.27515119
C        8.77135459       0.63208714      -0.07558676
C        8.46074290       0.70533117       3.56995998
C        9.72334155       1.48574131       3.60916432
C        1.43446635       2.04087509      -0.24516496
C        2.55984437       2.84548167      -0.29126243
C        2.31125109       2.82988512       3.52654639
C        3.50082363       3.54161543       3.70658704
C        3.83524525       2.13202784      -0.27449747
C        5.17655531       2.79404107      -0.19745242
C        4.74140786       2.87181576       3.70651210
C        6.05590364       3.61000834       3.55319009
C        6.33139008       2.12826329      -0.24444617
C        7.57975780       2.85902340      -0.21848577
C        7.27468841       2.97768258       3.71649042
C        8.53327996       3.60400754       3.57858156
C        8.79129151       2.10080812      -0.15455649
C       10.02744861       2.84153472      -0.27862388
C        9.76479102       2.94609706       3.49169425
C       10.99357185       3.62427181       3.42913354
C        2.58141904       4.30731347      -0.41833516
C        3.81124404       4.99889191      -0.37886558
C        3.63918309       5.00993708       3.65479443
C        4.80135272       5.65704988       3.78303754
C        5.07781135       4.24165375      -0.26987412
C        6.31761073       4.91622961      -0.34147744
C        6.02432502       4.97663394       3.75140961
C        7.26499307       5.66182606       3.76502233
C        7.58361207       4.14595358      -0.24663706
C        8.77647391       4.95970629      -0.17671191
C        8.50352445       5.02132045       3.80294389
C        9.69647207       5.75816615       3.67707705
C        9.99009005       4.25275513      -0.11819872
C       11.20662871       4.95337124      -0.31110766
C       10.98368326       5.11024483       3.64642526
C       12.25539354       5.75473290       3.61875613
C        3.80837084       6.40240180      -0.22466010
C        4.95145939       7.07976212      -0.36332622
C        4.82073945       7.10440423       3.61253841
C        5.98697731       7.88551246       3.52481005
C        6.27163650       6.33465177      -0.22915232
C        7.46527925       6.98860149      -0.28656316
C        7.21124128       7.07279110       3.72612167
C        8.46719922       7.81536053       3.79144812
C        8.73468131       6.39212472      -0.28912873
C       10.00871066       7.14822503      -0.28191712
C        9.72599784       7.15494363       3.73835202
C       10.94140555       7.85645504       3.72653481
C       11.25100955       6.36381370      -0.37882121
C       12.51027849       7.05747556      -0.30211731
C       12.17275294       7.20151340       3.67225353
C       13.42663042       7.75860933       3.64208292
64
Lattice="9.860000170089029 0.0 0.0 4.930000085044514 8.53900664730135 0.0 0.0 0.0 29.999997077512198" Properties=species:S:1:pos:R:3 energy=-16264.966081945468 pbc="T T T"
C        0.13568050       0.04853092      -0.11400921
C        1.38652703       0.78347660      -0.13228176
C        1.02518662       0.67153602       3.79415074
C        2.28720551       1.34196476       3.67093427
C        2.60877758       0.13233303      -0.01504833
C        3.88320528       0.78052846      -0.00240091
C        3.50396601       0.62576787       3.47361693
C        4.74337493       1.34443074       3.35190016
C        5.12882009       0.03377839      -0.03381783
C        6.34764034       0.76929299       0.04744336
C        6.04755913       0.71573248       3.45142404
C        7.19180524       1.39459744       3.67531802
C        7.58625751       0.05664373      -0.03465593
C        8.80823395       0.80115854      -0.23625349
C        8.46028539       0.63168387       3.78095806
C        9.66995458       1.42071066       3.82411824
C        1.39574514       2.17885298      -0.27382108
C        2.57214571       2.93567701      -0.26295043
C        2.31592966       2.73980318       3.50780056
C        3.51775719       3.48160747       3.28156976
C        3.85567419       2.21804648      -0.17981288
C        5.10766546       2.95012881      -0.13243065
C        4.70596708       2.75757287       3.34093189
C        6.02382709       3.44260230       3.47861595
C        6.35970997       2.18905315       0.02329819
C        7.56191120       2.84178122      -0.13228669
C        7.30996157       2.76292882       3.67033675
C        8.50095296       3.51110859       3.55398086
C        8.83476228       2.26147978      -0.24959309
C       10.03585426       2.89934784      -0.22432684
C        9.73366695       2.83305906       3.67301078
C       10.95885874       3.52483174       3.40472018
C        2.61736268       4.31486524      -0.24383090
C        3.86513288       5.00627409      -0.18685982
C        3.57096668       4.89381388       3.38029991
C        4.78566349       5.65194634       3.41037390
C        5.11134324       4.30535921      -0.02839877
C        6.35314222       4.96587668       0.01510453
C        6.00622009       4.94324798       3.49980509
C        7.21749350       5.64846675       3.42791780
C        7.60288344       4.29119631       0.02195132
C        8.78490914       5.04330628      -0.17046658
C        8.50845741       4.90663386       3.51475383
C        9.68890156       5.65903864       3.33573469
C        9.93972616       4.35170319      -0.32242891
C       11.30015179       5.02904872      -0.19777188
C       10.92297228       4.99344919       3.34574456
C       12.20965497       5.65331096       3.41704813
C        3.81353945       6.46708636      -0.16830330
C        5.01335653       7.15836210      -0.06541716
C        4.81810683       7.05047989       3.50877276
C        6.00274641       7.73514253       3.70336775
C        6.28159412       6.42628272       0.04486497
C        7.54193286       7.09680611       0.01853286
C        7.19725191       7.09983806       3.55319896
C        8.45141632       7.68973229       3.42473203
C        8.76113175       6.47601557       0.01872217
C        9.99294847       7.21144439      -0.05777073
C        9.68074635       7.03407877       3.36179072
C       10.92397110       7.80647765       3.39249180
C       11.18529955       6.45665941      -0.04666935
C       12.47249497       7.19574629      -0.15461565
C       12.16406332       7.08327524       3.43065198
C       13.44955591       7.75263219       3.63623397
52
Lattice="8.887683617333732 0.0 0.0 4.443841808666866 7.696956204701445 0.0 0.0 0.0 30.000002767598083" Properties=species:S:1:pos:R:3 energy=-13218.390156932608 pbc="T T T"
C       13.31628127       7.68960342      -0.03410115
C        9.58010083       7.51561813      -0.00813579
C       10.91342757       7.12475025       0.03068295
C       11.24570340       5.74965317       0.02745317
C        7.19003828       6.90351092      -0.02676704
C        8.57685288       6.53319580      -0.02889653
C        8.89332285       5.14260927      -0.00374171
C       10.22990782       4.72676255       0.02018748
C       10.57562982       3.34820817      -0.01157976
C        4.77544484       6.27764646       0.00559924
C        6.15546480       5.89431266       0.01779936
C        6.52982915       4.52230583      -0.00448739
C        7.89299895       4.12382743      -0.03790064
C        8.22995326       2.73088477      -0.00666754
C        9.58175394       2.36267604      -0.01956712
C        3.71873659       5.34775478       0.03849078
C        4.09519131       3.93768201      -0.09872261
C        5.47354395       3.51633470       0.03742692
C        5.79461330       2.13520111       0.01335019
C        7.19878910       1.73811718       0.04405447
C        7.50345889       0.37309252       0.01074343
C        3.05541854       2.97525519      -0.01726699
C        3.40324070       1.57115138      -0.01863125
C        4.76200933       1.18525171      -0.04567292
C        0.99054923       0.99723454      -0.04597865
C        2.38270177       0.59583742      -0.06876223
C        0.02656884       0.02984218       3.41444718
C        6.84786513       7.13519150       3.39433080
C        8.21452691       7.52905808       3.41983045
C        9.21811792       6.51619189       3.42274117
C       10.59320877       6.88298837       3.41611718
C       11.65504167       5.93490449       3.38811120
C        4.11221478       6.36843503       3.41088678
C        5.10863343       5.35320738       3.36691852
C        6.48911556       5.75077924       3.46843275
C        7.51517641       4.70646131       3.43463289
C        8.89347305       5.11905869       3.43735874
C        9.95766740       4.16618791       3.43078630
C       11.33469844       4.54180897       3.39848224
C        3.42318644       3.52976666       3.37327854
C        4.77655669       3.95537116       3.34922136
C        5.79777376       2.94481132       3.35301196
C        7.15585625       3.32526639       3.45911135
C        8.21789800       2.35316000       3.38577729
C        9.61131437       2.78165744       3.41321802
C        1.72498207       1.79429978       3.48341650
C        3.06965927       2.18088647       3.44690678
C        4.08670446       1.22853740       3.41371395
C        5.45348622       1.57854238       3.43633488
C        6.47461797       0.55750129       3.35855699
C        7.85813346       0.96787763       3.37837563
C        1.38206235       0.43633549       3.37708603
52
Lattice="8.887683617333732 0.0 0.0 4.443841808666866 7.696956204701445 0.0 0.0 0.0 30.000002767598083" Properties=species:S:1:pos:R:3 energy=-13217.91611040754 pbc="T T T"
C       12.41223409       6.67499346      -0.13252070
C        8.61935467       6.43648536      -0.26471877
C       10.00154234       6.05072790      -0.19185132
C       10.32769100       4.66088438      -0.15073867
C        6.23685021       5.83135676      -0.10731522
C        7.59534954       5.44487850      -0.27238084
C        7.91053435       4.02978240      -0.22675503
C        9.31825189       3.66201539      -0.21794822
C        9.66973934       2.31822429      -0.15588997
C        3.85904734       5.30277511      -0.02531390
C        5.21148437       4.90303554       0.01073721
C        5.54678202       3.50201398       0.00818556
C        6.88588931       3.07864206      -0.08472007
C        7.26484591       1.73793409      -0.11192971
C        8.64160054       1.33144611      -0.15426797
C        2.86448088       4.27260192      -0.02083984
C        3.17902933       2.92714616      -0.00979156
C        4.55765393       2.52588857       0.09582700
C        4.88333954       1.13173808      -0.06345273
C        6.24371772       0.75750527      -0.08300830
C       11.02382327       7.01912013      -0.10890434
C        2.13951519       1.89462040      -0.08855777
C        2.51016448       0.56217976      -0.18282054
C        3.85681830       0.09934297      -0.18308450
C        4.58328245       7.64627419      -0.13685611
C        5.91956879       7.26141349      -0.15677696
C        0.91704008       1.06913501       3.59459786
C        3.30756035       0.45831829       3.71173576
C        4.68797759       0.87967448       3.63837771
C       10.18099534       7.54621754       3.45924466
C        7.10132231       0.28952163       3.46759375
C       12.54952925       6.98294992       3.45795951
C        5.03598462       7.35481327       3.56251777
C        6.06914051       6.38651347       3.52083542
C        7.42957202       6.76080138       3.61689884
C        8.47296919       5.79763600       3.46502877
C        9.82203602       6.19617040       3.47770172
C       10.80898307       5.15978650       3.46982101
C        3.31068881       5.59025168       3.44159284
C        4.33683588       4.58326201       3.44108890
C        5.71964302       5.00089693       3.45116398
C        6.76336459       4.01949313       3.38490541
C        8.13634817       4.40769649       3.46605263
C        9.12874248       3.40629896       3.40266567
C       10.48904245       3.76960613       3.47256108
C        2.62528576       2.79356249       3.69884328
C        3.99688553       3.19212089       3.62665041
C        5.06276676       2.21366602       3.57152810
C        6.41282724       2.63842887       3.45154793
C        7.45425134       1.67568742       3.40420413
C        8.81597423       2.04197731       3.47676318
C        2.27746093       1.40909691       3.68381066
52
Lattice="8.887683617333732 0.0 0.0 4.443841808666866 7.696956204701445 0.0 0.0 0.0 30.000002767598083" Properties=species:S:1:pos:R:3 energy=-13217.835595596218 pbc="T T T"
C       12.41505771       6.63898057      -0.11320509
C        8.63588932       6.44027240      -0.29989889
C        9.98264624       6.03342713      -0.20724834
C       10.35054301       4.64818565      -0.17797853
C        6.24670221       5.85893613      -0.15499409
C        7.60334845       5.42684983      -0.28724638
C        7.94953084       4.07180515      -0.22063941
C        9.29207767       3.65699474      -0.23250891
C        9.66753964       2.25712680      -0.18382041
C        3.85879137       5.24910238      -0.03385408
C        5.21570425       4.86974494       0.02276402
C        5.53906484       3.52593340      -0.01345684
C        6.89151254       3.11195843      -0.10510308
C        7.26773352       1.71655833      -0.11280159
C        8.62967683       1.32226513      -0.18021645
C        2.81294298       4.29625649      -0.02526502
C        3.18250619       2.86767156       0.03824015
C        4.51978973       2.50963389       0.10300025
C        4.82640948       1.13008053      -0.00908321
C        6.24860773       0.72917400      -0.11361126
C       11.04479642       7.07952171      -0.16249085
C        2.15954536       1.92303699      -0.06935237
C        2.47330904       0.48796405      -0.20091231
C        3.83664948       0.16506473      -0.16904196
C        4.52097268       7.65884404      -0.15801679
C        5.92282702       7.21611652      -0.21671728
C        0.92564158       1.02768463       3.60611097
C        3.35047630       0.43257334       3.72639688
C        4.72142017       0.83004210       3.65836433
C       10.16246985       7.59766123       3.54332126
C        7.08118549       0.26063488       3.45870607
C       12.56187958       6.99363292       3.44914559
C        5.02343343       7.39483451       3.56224847
C        6.05938272       6.38455463       3.55534630
C        7.44781666       6.75298288       3.63640553
C        8.44941950       5.78863011       3.44143019
C        9.81379980       6.18394183       3.46188875
C       10.85532078       5.22846785       3.50908679
C        3.32274229       5.59544830       3.46643480
C        4.34475836       4.58519953       3.46043206
C        5.73733840       4.99790001       3.42350373
C        6.77852520       4.03943443       3.42278739
C        8.12509192       4.42614110       3.40461118
C        9.14573751       3.42402988       3.40423524
C       10.51533311       3.82405208       3.48680893
C        2.62000114       2.81584481       3.69165404
C        4.01207369       3.20441167       3.65663479
C        5.05966941       2.26170306       3.60933364
C        6.45169930       2.64947803       3.43890431
C        7.43510283       1.63072019       3.43653486
C        8.78848729       2.03318561       3.47522561
C        2.29283840       1.43191337       3.69790474
52
Lattice="8.887683617333732 0.0 0.0 4.443841808666866 7.696956204701445 0.0 0.0 0.0 30.000002767598083" Properties=species:S:1:pos:R:3 energy=-13218.096647054934 pbc="T T T"
C       12.34000211       6.61801008      -0.28707040
C        8.61781088       6.37036455      -0.19749944
C        9.93556551       5.99816525      -0.13402805
C       10.28029743       4.62180079      -0.16259484
C        6.19099776       5.80917399      -0.24676920
C        7.57630501       5.40276066      -0.23688254
C        7.88936478       4.00742632      -0.20884990
C        9.26591499       3.60768054      -0.18804739
C        9.61070557       2.25867148      -0.17654761
C        3.77276126       5.20334681      -0.25591018
C        5.12641147       4.82387116      -0.22856278
C        5.48694124       3.45351922      -0.18026000
C        6.85478775       3.01752768      -0.18795407
C        7.22973690       1.64592346      -0.18954585
C        8.59390124       1.27126760      -0.23111799
C        2.74784158       4.27327827      -0.17915526
C        3.12489801       2.87800260      -0.07443257
C        4.47206554       2.40987319      -0.12802975
C        4.79889233       1.05025491      -0.08752680
C        6.20196250       0.63243335      -0.21026749
C       10.96678211       6.97121818      -0.23368475
C        2.10613216       1.84831468      -0.11770848
C        2.47223451       0.48127429      -0.13291264
C        3.79022734       0.06087708      -0.14200208
C        4.46766880       7.62697103      -0.29167689
C        5.86448204       7.20535354      -0.22899028
C        0.98903388       1.07279585       3.51031329
C        3.42582164       0.49088899       3.53836816
C        4.77901413       0.91542430       3.62800400
C       10.22291677       7.61742121       3.68909972
C        7.14698901       0.30257674       3.67372758
C       12.59915541       7.00591747       3.67082930
C        5.06495491       7.41882592       3.55866318
C        6.09505966       6.43164424       3.54006659
C        7.47508763       6.82721104       3.49117811
C        8.52959173       5.83532511       3.53574185
C        9.89278198       6.24332844       3.58545866
C       10.92216861       5.25474784       3.63834749
C        3.39506581       5.63353203       3.66761552
C        4.39282828       4.62741869       3.61923630
C        5.73772145       5.06071282       3.53932447
C        6.80683692       4.09800249       3.64775066
C        8.15030095       4.50054168       3.54335237
C        9.20518989       3.49278589       3.51620761
C       10.59512585       3.87907929       3.52728077
C        2.69926684       2.87026854       3.56281106
C        4.06040847       3.27256776       3.69165492
C        5.08771005       2.31646986       3.65759643
C        6.44864904       2.72837667       3.57775215
C        7.46551026       1.67838128       3.65647836
C        8.84643499       2.07587138       3.55927821
C        2.35750874       1.48913228       3.51189086
52
Lattice="8.887683617333732 0.0 0.0 4.443841808666866 7.696956204701445 0.0 0.0 0.0 30.000002767598083" Properties=species:S:1:pos:R:3 energy=-13216.934351297223 pbc="T T T"
C       12.28624940       6.52671668      -0.11684549
C        8.55907662       6.39083911      -0.05645457
C        9.90359651       5.98124576      -0.15435240
C       10.23480582       4.59019529      -0.21707812
C        6.16621001       5.74708019      -0.14630283
C        7.52923495       5.41528251      -0.02087184
C        7.93839280       4.03538520      -0.08064062
C        9.23476099       3.63581716      -0.11094851
C        9.60325058       2.21873734      -0.12343482
C        3.74261868       5.15298209      -0.26334562
C        5.16211151       4.77002069      -0.30147823
C        5.49602001       3.37339764      -0.34760975
C        6.86998568       2.98908798      -0.26403353
C        7.13093519       1.63825250      -0.21214901
C        8.54505275       1.19712388      -0.13823459
C        2.67829813       4.17724596      -0.28630873
C        3.06715206       2.76512991      -0.40182373
C        4.41805064       2.37419714      -0.43902224
C        4.78187597       1.01681766      -0.29442496
C        6.17734895       0.58731858      -0.22900183
C       10.96369453       6.94962288      -0.15240244
C        2.03989759       1.83272124      -0.33933798
C        2.31931481       0.42682923      -0.21161752
C        3.74937954       0.07293589      -0.20413321
C        4.38325980       7.50808137      -0.12759070
C        5.79303840       7.14256205      -0.11781602
C        1.04436237       1.14775102       3.55744201
C        3.44337926       0.56161806       3.46691296
C        4.79925050       0.95917659       3.46783106
C       10.22265636       7.63487307       3.54315329
C        7.15061163       0.27127432       3.54986793
C       12.66529044       7.04020705       3.59846578
C        5.12787971       7.47359361       3.59593191
C        6.16801777       6.43782651       3.66714092
C        7.49919369       6.86263735       3.54817749
C        8.53971658       5.88626576       3.70921432
C        9.90850340       6.25945604       3.64459731
C       10.99782501       5.35841823       3.69128164
C        3.48275081       5.68395186       3.59090059
C        4.44132126       4.70303688       3.59611144
C        5.79576869       5.10642307       3.68165095
C        6.80956543       4.10732656       3.73121667
C        8.18861131       4.47302541       3.69827447
C        9.24691224       3.50334002       3.74254314
C       10.62975493       3.96320121       3.67950902
C        2.74771271       2.96704030       3.47801634
C        4.12044300       3.34064030       3.47267662
C        5.12159701       2.34504376       3.51735145
C        6.47457175       2.69778970       3.62224212
C        7.47610882       1.69660637       3.73251961
C        8.86194666       2.13268145       3.68243395
C        2.43845510       1.55778075       3.49179314
52
Lattice="8.887683617333732 0.0 0.0 4.443841808666866 7.696956204701445 0.0 0.0 0.0 30.000002767598083" Properties=species:S:1:pos:R:3 energy=-13217.860152237474 pbc="T T T"
C       12.27483850       6.53252834      -0.08609677
C        8.55114437       6.35476311      -0.08514223
C        9.90604685       5.95380237      -0.10053659
C       10.23197065       4.60564209      -0.20794780
C        6.13577059       5.76813422      -0.11436849
C        7.52786002       5.36469293      -0.02842103
C        7.82715188       3.98838891      -0.05673808
C        9.23826452       3.57946658      -0.12514570
C        9.54553396       2.21911062      -0.18358755
C        3.74329059       5.14480631      -0.22037367
C        5.09936269       4.74021317      -0.28809160
C        5.46966092       3.37552002      -0.39251566
C        6.83871615       3.00434547      -0.21369991
C        7.20304718       1.57278938      -0.19214816
C        8.52595489       1.23014518      -0.09881949
C        2.72118209       4.20114939      -0.34977479
C        3.06178034       2.82007979      -0.40663997
C        4.44149902       2.36924404      -0.50658108
C        4.76619809       0.98872192      -0.32305219
C        6.15011264       0.61008527      -0.26126946
C       10.90865222       6.91219863      -0.15931262
C        2.03229773       1.79401360      -0.34109241
C        2.41007672       0.44321101      -0.22089715
C        3.72759405       0.02681592      -0.20864282
C        4.42305974       7.54325883      -0.10009220
C        5.78446623       7.13668018      -0.10813734
C        1.05221286       1.17083855       3.57801434
C        3.44081250       0.57182023       3.47266062
C        4.80103781       0.96206775       3.47772038
C       10.25551768       7.65650747       3.53028570
C        7.19251261       0.35795412       3.55379629
C       12.68051949       7.06903069       3.54618487
C        5.15535687       7.48488985       3.60644426
C        6.14102676       6.50913506       3.68478919
C        7.53362547       6.89316565       3.59813250
C        8.55150610       5.86741409       3.66970146
C        9.92906062       6.28188144       3.64674990
C       10.96667368       5.27469180       3.67717511
C        3.43465511       5.68033368       3.60682998
C        4.47353645       4.69140201       3.54689411
C        5.81316278       5.08797757       3.67663563
C        6.83952048       4.09787361       3.77062022
C        8.20755363       4.51368123       3.77925282
C        9.25747080       3.52672262       3.74645460
C       10.62655803       3.91610538       3.67766838
C        2.74195883       2.94712567       3.46819101
C        4.10186418       3.33279337       3.51832288
C        5.11761710       2.34506509       3.44518613
C        6.47898093       2.74799445       3.58074019
C        7.51913143       1.71936239       3.66894778
C        8.91517856       2.12466387       3.75590754
C        2.40323676       1.57630268       3.49582104
52
Lattice="8.887683617333732 0.0 0.0 4.443841808666866 7.696956204701445 0.0 0.0 0.0 30.000002767598083" Properties=species:S:1:pos:R:3 energy=-13217.718604196938 pbc="T T T"
C       12.27975073       6.57715162      -0.13160615
C        8.52405915       6.27114245      -0.10930962
C        9.89050673       5.89680210      -0.11797333
C       10.21242841       4.52790063      -0.14802082
C        6.12486629       5.75126273      -0.09857419
C        7.45242314       5.28358571      -0.10967757
C        7.81092208       3.94560093      -0.10633402
C        9.19503038       3.54468997      -0.18246059
C        9.56442384       2.19746911      -0.22637019
C        3.72965333       5.16659979      -0.24258577
C        5.09875566       4.76061396      -0.18914857
C        5.42288948       3.41790538      -0.32151729
C        6.76643528       2.97953639      -0.18484782
C        7.12784049       1.57698703      -0.16188205
C        8.51586560       1.19386032      -0.13200165
C        2.71399017       4.16803654      -0.30307001
C        3.06147816       2.77681188      -0.45922928
C        4.39460760       2.38148415      -0.41983729
C        4.74918173       1.02407712      -0.39644224
C        6.14496045       0.60466200      -0.22432336
C       10.93185529       6.94344417      -0.12163950
C        2.05435252       1.78279912      -0.27282967
C        2.40057668       0.43169168      -0.21303511
C        3.72695236       0.03995369      -0.25590841
C        4.44317523       7.52992641      -0.05389491
C        5.82014228       7.10622743      -0.10676063
C        1.01653859       1.13888111       3.66848562
C        3.46801681       0.55163630       3.53664217
C        4.82477326       0.95513981       3.44139197
C       10.28437777       7.69467651       3.54303419
C        7.21382617       0.41619245       3.54455310
C       12.65345471       7.09036735       3.60457340
C        5.13903375       7.47139924       3.59656915
C        6.18658236       6.47626930       3.62144489
C        7.55065782       6.89473611       3.66651700
C        8.59376792       5.91212447       3.71828598
C        9.95542771       6.32899061       3.58914794
C       10.96062295       5.30002792       3.58201290
C        3.41782006       5.70375184       3.55109354
C        4.45363426       4.73643502       3.59938388
C        5.82349560       5.12639458       3.64080315
C        6.88339809       4.14822679       3.68566285
C        8.22682568       4.56243373       3.80231903
C        9.25390595       3.53911650       3.78915104
C       10.61214487       3.92367768       3.61890657
C        2.74461802       2.91097324       3.58576973
C        4.15749309       3.34409317       3.46628460
C        5.19172972       2.33162069       3.48291168
C        6.53441164       2.78011099       3.59946476
C        7.56166611       1.77934981       3.55370297
C        8.91459641       2.17126822       3.65960061
C        2.39587509       1.51849274       3.54156861
52
Lattice="8.887683617333732 0.0 0.0 4.443841808666866 7.696956204701445 0.0 0.0 0.0 30.000002767598083" Properties=species:S:1:pos:R:3 energy=-13216.57701412544 pbc="T T T"
C       12.21326996       6.47594134      -0.20095853
C        8.44171032       6.23727949      -0.20056213
C        9.78980928       5.80040007      -0.26921060
C       10.13120120       4.44945971      -0.18054441
C        6.03640984       5.68849258      -0.28378729
C        7.40672356       5.23796256      -0.22596491
C        7.72478621       3.87975830      -0.25687005
C        9.12735600       3.46382360      -0.18945697
C        9.47155022       2.07077785      -0.15527228
C        3.69149939       5.10996481      -0.06950880
C        5.03028317       4.65723331      -0.19054483
C        5.36172000       3.36573557       0.03449843
C        6.67413047       2.91713951      -0.07510270
C        7.08452370       1.51362851      -0.20248099
C        8.44431619       1.13538647      -0.20227835
C        2.68375339       4.11297912       0.02556898
C        3.00904972       2.70449368       0.04606220
C        4.32285733       2.36003551       0.05864805
C        4.65259928       0.95814829      -0.05167833
C        6.08530632       0.60307199      -0.10181286
C       10.88835630       6.88907554      -0.20262497
C        1.97918760       1.72149632      -0.04827256
C        2.34921298       0.32085693      -0.07576217
C        8.13205898       7.62550101      -0.05848807
C        4.38034731       7.46443574      -0.27262969
C        5.74413747       7.02604541      -0.21865479
C        1.12049072       1.24128678       3.50388039
C        3.47992542       0.64000565       3.63631221
C        4.88956536       1.04500673       3.71923874
C        5.93043577       0.07065797       3.60101922
C        7.31155514       0.52048675       3.59746503
C       12.72728648       7.20409860       3.58307232
C        5.19490796       7.58626899       3.52050747
C        6.26011550       6.56993393       3.47659076
C        7.63000617       6.94108804       3.45136307
C        8.62584002       5.98003171       3.45117287
C        9.99162813       6.37833325       3.54516635
C       11.01672023       5.34798320       3.45686188
C        3.45999923       5.77409075       3.57083309
C        4.53043718       4.76639540       3.64178791
C        5.95783738       5.18401610       3.56739800
C        6.97567713       4.20631758       3.37624614
C        8.33867807       4.61090715       3.37003276
C        9.31007611       3.57065356       3.43934159
C       10.64279672       3.96857293       3.51248811
C        2.78281551       2.96161970       3.56646746
C        4.14695407       3.35139529       3.57631234
C        5.24373778       2.42978605       3.65136261
C        6.63696484       2.83025441       3.55717983
C        7.65974614       1.86503330       3.52011908
C        8.99876811       2.24979090       3.46852785
C        2.45669973       1.60347055       3.60693841
64
Lattice="9.860000170089029 0.0 0.0 4.930000085044514 8.53900664730135 0.0 0.0 0.0 29.999997077512198" Properties=species:S:1:pos:R:3 energy=-16265.913225726481 pbc="T T T"
C        4.96756767       8.41681265      -0.18457920
C        1.26837366       0.65229817      -0.16727786
C        9.85777378       0.06237338       3.58517691
C        1.21255423       0.74498217       3.63656428
C        7.41235570       8.48800087      -0.21131459
C        3.71148647       0.62008555      -0.23277883
C        2.43448334       0.09593484       3.80876031
C        3.70312322       0.79670280       3.77556859
C        9.85101081       8.41462965      -0.33631376
C        6.19871490       0.62219559      -0.36740628
C        4.91318977       0.08777372       3.73742813
C        6.11076764       0.81308618       3.83791928
C       12.33931693       8.42143896      -0.32583751
C        8.64792120       0.59191750      -0.23854200
C        7.35125032       0.05733491       3.81465264
C        8.62398604       0.77064381       3.64828486
C        1.26351367       2.08307787      -0.27308059
C        2.50322431       2.81287169      -0.54429469
C       11.06861927       2.23908377       3.59709765
C        2.39181419       2.95610594       3.62595196
C        3.71447110       2.04172305      -0.44898201
C        4.94713972       2.76234511      -0.36430433
C        3.70548272       2.26337290       3.71623801
C        4.90998034       2.92691837       3.72836186
C        6.17032796       2.00579223      -0.17236661
C        7.44949635       2.76235103      -0.12209934
C        6.12158899       2.23999780       3.74360838
C        7.40089739       2.90947998       3.76710673
C        8.65890031       2.06823166      -0.26241306
C        9.94292672       2.77688269      -0.32342082
C        8.58973142       2.19526593       3.73635734
C        9.81555622       2.91426010       3.61489791
C        2.48217813       4.16483449      -0.63130229
C        3.71253854       4.89428618      -0.49923843
C       12.28408220       4.33612241       3.64270114
C        3.68248131       5.10927461       3.73891502
C        4.92848263       4.21920155      -0.40035643
C        6.15775153       4.91322921      -0.38269126
C        4.89838301       4.39687579       3.78926807
C        6.17361430       5.05820178       3.81538130
C        7.43931491       4.23957428      -0.16696727
C        8.65386283       4.97222258      -0.26140931
C        7.42747897       4.31593308       3.82534976
C        8.59540289       5.02812286       3.76731774
C        9.89278171       4.24716352      -0.48306507
C       11.08312826       4.89859894      -0.67604598
C        9.79344418       4.30105730       3.57461784
C       11.06462597       5.04453779       3.66178221
C        3.74063756       6.30149357      -0.53144711
C        4.93747594       7.04350394      -0.23391766
C       13.54268854       6.50359695       3.77813317
C        4.90644750       7.18682989       3.79422568
C        6.18440903       6.31478485      -0.14577123
C        7.41927052       7.05191255      -0.17203137
C        6.19048969       6.47710313       3.86639299
C        7.38569623       7.19109532       3.94825663
C        8.64828306       6.32381070      -0.29526954
C        9.87478228       7.03808686      -0.39111170
C        8.60706135       6.45608556       3.91821814
C        9.83408513       7.19347158       3.76773482
C       11.12419319       6.36591684      -0.56336787
C       12.32972512       6.94649041      -0.60622831
C       11.03796650       6.48095346       3.72632479
C       12.26969843       7.23464892       3.82664043
52
Lattice="8.887683617333732 0.0 0.0 4.443841808666866 7.696956204701445 0.0 0.0 0.0 30.000002767598083" Properties=species:S:1:pos:R:3 energy=-13216.3948798977 pbc="T T T"
C        4.35115304       7.46533517      -0.19616362
C        9.43486630       7.39552864      -0.18841001
C       10.76432690       6.99704134      -0.41808375
C       11.14479530       5.54671891      -0.42202099
C        7.02790116       6.69840806      -0.06032249
C        8.42290043       6.38582556      -0.21877566
C        8.77447586       4.99171151      -0.25123260
C       10.11187849       4.58975980      -0.34020720
C       10.45897364       3.15713541      -0.15992587
C        4.68769852       6.12990205      -0.29135249
C        6.03330270       5.73060064      -0.23478683
C        6.38941708       4.33556316      -0.26498629
C        7.73193013       3.94816503      -0.24159390
C        8.07289189       2.62656736      -0.26278036
C        9.46971758       2.21317276      -0.17582771
C        3.61812090       5.15297231      -0.26172895
C        3.98183691       3.76875291      -0.18285698
C        5.38924693       3.42844617      -0.21571030
C        5.65929920       1.96705147      -0.31145110
C        7.05384964       1.61782238      -0.34757242
C        7.39159139       0.19576190      -0.31511638
C        2.92944984       2.84102095      -0.05620482
C        3.24166884       1.40825347       0.00090477
C        4.62429023       1.00029190      -0.15947615
C        0.87341578       0.79985153      -0.01390922
C        2.24350464       0.43701718      -0.01339196
C        0.16183316       0.18879306       3.71387413
C        6.94903985       7.26637726       3.60895414
C        3.90414433       0.00182375       3.52469534
C        9.35019690       6.62814915       3.50326892
C       10.70537667       7.01752745       3.61711837
C       11.77104282       6.10073178       3.71027729
C        4.25172297       6.56206922       3.69924767
C        5.28062522       5.49456865       3.73459221
C        6.63520863       5.86723722       3.54163527
C        7.62479088       4.85720620       3.45096223
C        8.98020529       5.27365550       3.43499284
C       10.06207102       4.36270081       3.51350308
C       11.46166433       4.74395667       3.61175820
C        3.55963638       3.70551971       3.77015006
C        4.94079131       4.13630751       3.88286188
C        5.92850358       3.10545620       3.69835446
C        7.30048197       3.51857884       3.57395444
C        8.32412004       2.51167094       3.63544299
C        9.70358897       2.97047539       3.46027564
C        1.83023358       1.95160556       3.54485972
C        3.20355401       2.33430033       3.49507092
C        4.22181858       1.36236014       3.57723222
C        5.60749823       1.73093060       3.70748300
C        6.59811678       0.71956642       3.71118205
C        7.96667607       1.16175268       3.70415279
C        1.52653165       0.58764742       3.57708468
52
Lattice="8.887683617333732 0.0 0.0 4.443841808666866 7.696956204701445 0.0 0.0 0.0 30.000002767598083" Properties=species:S:1:pos:R:3 energy=-13217.714235001089 pbc="T T T"
C        4.32707987       7.47594529      -0.20427808
C        9.40276043       7.33002285      -0.24386382
C       10.78448594       6.92112808      -0.39141003
C       11.15451576       5.56121828      -0.38301028
C        7.01016934       6.70938080      -0.10770628
C        8.37032800       6.34351841      -0.22079672
C        8.72018278       4.96461296      -0.30396322
C       10.10484300       4.54885690      -0.31949178
C       10.45655175       3.19179116      -0.17046755
C        4.68365551       6.07455311      -0.26924349
C        6.02478919       5.68719142      -0.22827838
C        6.36716410       4.36830183      -0.24997232
C        7.71176042       3.97648652      -0.25897377
C        8.07949100       2.57550851      -0.28628118
C        9.41766241       2.15676174      -0.18041109
C        3.64812572       5.15622165      -0.31759160
C        3.99325225       3.78285322      -0.14681120
C        5.31819435       3.37625414      -0.26757438
C        5.64685022       2.02792855      -0.27193112
C        7.05191212       1.58755182      -0.32794308
C        7.41434475       0.22030612      -0.31813908
C        2.94521037       2.80074374      -0.10597230
C        3.24699256       1.41513698      -0.05827832
C        4.60089073       1.05698999      -0.15106218
C        0.86505336       0.78588542      -0.07243107
C        2.23959851       0.36819096      -0.00630226
C        0.15292504       0.22006705       3.68218154
C        6.99817363       7.25467129       3.59649539
C        8.34662632       7.63078740       3.53083051
C        9.33394310       6.66256581       3.50688798
C       10.71252948       7.05392074       3.61853151
C       11.79028199       6.13352200       3.70530907
C        4.26232242       6.51328117       3.73340393
C        5.29959420       5.53258927       3.74527788
C        6.65292445       5.88040433       3.55958306
C        7.64955552       4.89133935       3.52446871
C        8.98883346       5.28614980       3.47134969
C       10.05527461       4.37484583       3.49988893
C       11.44510214       4.73948794       3.61752009
C        3.59121166       3.75303238       3.74329770
C        4.97074280       4.12998659       3.81511640
C        5.98105290       3.13975466       3.73454422
C        7.30048286       3.51802692       3.56854007
C        8.32456798       2.57480549       3.61693084
C        9.69078893       2.98576487       3.54023990
C        1.83375843       1.99285152       3.52341552
C        3.22580877       2.36255783       3.58650385
C        4.25615259       1.36260544       3.62085741
C        5.61106485       1.75066392       3.67710845
C        6.61424081       0.73531451       3.71830731
C        7.98602012       1.16515577       3.68884286
C        1.51597131       0.57911347       3.63674948
52
Lattice="8.887683617333732 0.0 0.0 4.443841808666866 7.696956204701445 0.0 0.0 0.0 30.000002767598083" Properties=species:S:1:pos:R:3 energy=-13218.521546419319 pbc="T T T"
C       13.16839199       7.51127294      -0.22703321
C        9.40551828       7.31265632      -0.28678866
C       10.80904884       6.91626652      -0.33688587
C       11.12834243       5.52688160      -0.33919311
C        7.03537570       6.72430411      -0.15123727
C        8.38888637       6.31248884      -0.21841927
C        8.73829588       4.94287636      -0.31779690
C       10.11083063       4.56874132      -0.29580877
C       10.44453294       3.17567956      -0.19071014
C        4.63215672       6.13904392      -0.24486368
C        6.01257218       5.75307315      -0.19493801
C        6.34566212       4.31531257      -0.25838452
C        7.73647351       3.94525787      -0.28915190
C        8.05070023       2.55411141      -0.28688821
C        9.42384646       2.17181748      -0.16921794
C        3.60770453       5.12869916      -0.32448311
C        3.92720165       3.76856183      -0.18781809
C        5.31385449       3.36257422      -0.25897021
C        5.68532945       1.97908895      -0.23893026
C        7.01659158       1.58958977      -0.29357619
C        7.36402980       0.19351953      -0.32490616
C        2.91544819       2.77279109      -0.13030588
C        3.26501056       1.39375499      -0.08530932
C        4.64979255       1.00582893      -0.17211355
C        0.88789204       0.77386394      -0.13041076
C        2.23124231       0.40554411      -0.03033100
C        0.14299305       0.18635073       3.67244775
C        6.97835854       7.30528576       3.55921244
C        8.34499188       7.69462319       3.55457040
C        9.38673861       6.69836629       3.52202726
C       10.74343996       7.11116276       3.63502883
C       11.76780060       6.09822190       3.67083553
C        4.26642409       6.49704870       3.75790016
C        5.28060567       5.51361851       3.73214543
C        6.63750521       5.92666828       3.61928607
C        7.66254220       4.92249601       3.55181433
C        9.05411794       5.32712025       3.49881796
C       10.07240651       4.30574409       3.50896326
C       11.42701303       4.73102509       3.64408715
C        3.57730154       3.75779884       3.68218154
C        4.93747887       4.14288618       3.73576983
C        5.94543906       3.13726166       3.73379854
C        7.32850928       3.54058652       3.60826090
C        8.35551045       2.55350172       3.58156408
C        9.71842607       2.94983908       3.58143609
C        1.87473065       1.98131087       3.55529120
C        3.23741875       2.38454774       3.66983388
C        4.23784930       1.34421860       3.63110136
C        5.60893714       1.75714304       3.68054443
C        6.64445805       0.79079943       3.67973565
C        8.01175263       1.18592806       3.67826918
C        1.52602061       0.59945382       3.63954288
52
Lattice="8.887683617333732 0.0 0.0 4.443841808666866 7.696956204701445 0.0 0.0 0.0 30.000002767598083" Properties=species:S:1:pos:R:3 energy=-13218.198283886639 pbc="T T T"
C       13.16178400       7.53166129      -0.25528716
C        9.45219017       7.28783657      -0.27883774
C       10.75797843       6.90348159      -0.29833376
C       11.12285961       5.52946170      -0.29691351
C        7.03917696       6.72279409      -0.16171851
C        8.42452776       6.32203688      -0.25072778
C        8.75386710       4.92612574      -0.29269542
C       10.09912733       4.52821614      -0.27769390
C       10.42550618       3.14931070      -0.20307379
C        4.60432582       6.14879815      -0.22960353
C        5.98054364       5.73090194      -0.18349512
C        6.34079878       4.37353845      -0.26741262
C        7.69309362       3.91367993      -0.31616957
C        8.05953459       2.55916761      -0.26411263
C        9.42136947       2.17840414      -0.18626363
C        3.58403663       5.14423749      -0.27747793
C        3.93680923       3.71969201      -0.26805698
C        5.30629018       3.35546852      -0.21148154
C        5.64118344       1.94676888      -0.21860680
C        7.03186151       1.56440918      -0.26529558
C        7.33690103       0.20931384      -0.30322199
C        2.89874290       2.75908628      -0.15307169
C        3.29683113       1.37478245      -0.09990112
C        4.64962457       0.94037647      -0.20828820
C        0.85557286       0.82468372      -0.16519893
C        2.27401784       0.41810597      -0.11140089
C        0.16588150       0.17605524       3.68966408
C        6.96541541       7.32543237       3.56351230
C        3.91564766       0.01281782       3.56627993
C        9.41632748       6.74844306       3.55720916
C       10.78711226       7.12337177       3.63242829
C       11.75994833       6.11245730       3.66009121
C        4.22207544       6.50282570       3.73213921
C        5.27726656       5.51523874       3.70953339
C        6.64622758       5.93363444       3.66222425
C        7.69566394       4.96678867       3.57769438
C        9.06859686       5.32057003       3.52099451
C       10.06635044       4.32362967       3.56304037
C       11.42120493       4.71265869       3.63488840
C        3.55299995       3.73916759       3.64994503
C        4.91843789       4.13759445       3.67123014
C        5.94915678       3.15571960       3.68702711
C        7.33195770       3.56498233       3.65489102
C        8.37589524       2.54919474       3.58046467
C        9.75537039       2.91598678       3.56654922
C        1.88532211       1.95452339       3.65170834
C        3.23297313       2.35336619       3.68598992
C        4.24963615       1.41302616       3.65166301
C        5.60931042       1.77660618       3.69134563
C        6.66519390       0.81763490       3.63963442
C        8.03110822       1.17452872       3.64727517
C        1.50602421       0.60105360       3.59691400
52
Lattice="8.887683617333732 0.0 0.0 4.443841808666866 7.696956204701445 0.0 0.0 0.0 30.000002767598083" Properties=species:S:1:pos:R:3 energy=-13217.073541607404 pbc="T T T"
C       13.15507380       7.41323113      -0.22039322
C        9.36642136       7.23014129      -0.19607741
C       10.74830241       6.83568367      -0.00560013
C       11.08886156       5.45204997      -0.02405274
C        6.94781602       6.63174510      -0.36924770
C        8.32850700       6.21501939      -0.19708883
C        8.63732735       4.83972857      -0.11829151
C       10.03588346       4.44846963      -0.12945267
C       10.40149344       3.02605719      -0.29728413
C        4.60463067       6.06353238      -0.18204465
C        5.92980741       5.66983377      -0.25044159
C        6.23694798       4.29351553      -0.16399820
C        7.59006492       3.93245427      -0.16853892
C        7.98864198       2.48650902      -0.16081552
C        9.36647913       2.12922503      -0.27949099
C        3.57860448       5.08923962      -0.13820081
C        3.91019507       3.72392077      -0.24078512
C        5.26689819       3.33853037      -0.15445905
C        5.58231586       1.92727908      -0.16928460
C        6.94161242       1.52498875      -0.08422058
C        7.33890165       0.12520702      -0.07213866
C        2.92138516       2.74235166      -0.35283393
C        3.21164713       1.30231850      -0.41889075
C        4.58710060       0.92643525      -0.34286195
C        0.83377138       0.74386623      -0.39615605
C        2.19228581       0.30689971      -0.47683667
C        0.19123895       0.23073760       3.53511793
C        7.07356074       7.31529507       3.67684005
C        4.00756053       0.05987366       3.74947464
C        9.43252884       6.77297395       3.80069258
C       10.76518545       7.16844832       3.59726328
C       11.82870078       6.17982950       3.50134651
C        4.29902411       6.59268907       3.46011744
C        5.31976213       5.59539409       3.48988940
C        6.73043661       5.94768943       3.67860692
C        7.71848040       4.98235545       3.71178731
C        9.08258874       5.40903358       3.79000337
C       10.11254507       4.44352718       3.77345805
C       11.47082487       4.80641131       3.62709212
C        3.62616070       3.77056511       3.48742751
C        5.01390939       4.19802181       3.40382196
C        6.06249963       3.26007523       3.52085675
C        7.40981826       3.65026587       3.64503458
C        8.39030396       2.65129379       3.63975530
C        9.76246543       3.07540516       3.74814149
C        1.88771023       1.99136728       3.71827798
C        3.26328991       2.41763659       3.64229540
C        4.32974173       1.44864532       3.61142492
C        5.73845736       1.89259134       3.51932807
C        6.68604530       0.83585554       3.50865930
C        8.06163475       1.26167779       3.54036433
C        1.56421187       0.61375499       3.63240785
52
Lattice="8.887683617333732 0.0 0.0 4.443841808666866 7.696956204701445 0.0 0.0 0.0 30.000002767598083" Properties=species:S:1:pos:R:3 energy=-13215.920290369464 pbc="T T T"
C       13.10565739       7.49336692      -0.21123980
C        9.39049543       7.17901400      -0.22629020
C       10.74845172       6.80990139      -0.06694737
C       11.05079028       5.37778627      -0.05734422
C        6.98822476       6.63851574      -0.31076675
C        8.30475734       6.21867490      -0.15039560
C        8.70948556       4.85701067      -0.18179135
C       10.03312739       4.43737513      -0.07000740
C       10.42979627       3.09320719      -0.21302533
C        4.52888272       6.11696869      -0.19658579
C        5.92395575       5.69092513      -0.22546098
C        6.23692576       4.27726618      -0.10857994
C        7.60762165       3.81706103      -0.15488566
C        7.88995492       2.52693199      -0.19412301
C        9.37153622       2.05681974      -0.23376652
C        3.50115187       5.06838289      -0.18228906
C        3.85741556       3.68476875      -0.21129490
C        5.19076452       3.24877187      -0.22076562
C        5.60719427       1.88903627      -0.15433551
C        6.94589095       1.47084231      -0.08719440
C        7.29162539       0.12325795      -0.11583762
C        2.87398003       2.65346949      -0.33815148
C        3.22554391       1.28959667      -0.40041592
C        4.60940691       0.87062149      -0.25217825
C        0.78594586       0.70161152      -0.36547044
C        2.17687635       0.34533450      -0.31370501
C        0.21762027       0.26500140       3.48227621
C        7.09837693       7.39850868       3.57582619
C        4.00483645       0.13491326       3.66772484
C        9.46429431       6.83608450       3.68867311
C       10.83135692       7.18029738       3.62761383
C       11.79525732       6.17662105       3.55869073
C        4.28436210       6.55598027       3.55574802
C        5.32934128       5.56578299       3.52738387
C        6.66006393       6.00099331       3.60571191
C        7.77554466       5.04906196       3.74018434
C        9.13379069       5.42657343       3.77768948
C       10.14307071       4.42150528       3.64532699
C       11.52840551       4.77585278       3.60746723
C        3.60516888       3.81519728       3.46683741
C        4.95551109       4.22712809       3.43971842
C        6.05406433       3.28737642       3.52393811
C        7.43273870       3.64389696       3.60214706
C        8.46072019       2.64180441       3.59691133
C        9.78757758       2.99499918       3.75333367
C        1.88807640       2.03578792       3.60255501
C        3.28564510       2.40081398       3.64300819
C        4.35672118       1.49896472       3.62869369
C        5.70689275       1.89376718       3.54811972
C        6.74464002       0.93395779       3.56107352
C        8.08985492       1.28150177       3.54212231
C        1.60026743       0.61075629       3.67407064
52
Lattice="8.887683617333732 0.0 0.0 4.443841808666866 7.696956204701445 0.0 0.0 0.0 30.000002767598083" Properties=species:S:1:pos:R:3 energy=-13217.948453586288 pbc="T T T"
C       13.00949354       7.36363252      -0.06022828
C        9.27325000       7.11580390      -0.16267838
C       10.65931536       6.71217686      -0.23465173
C       10.94652353       5.35277366      -0.25006920
C        6.89695980       6.55375835       0.05963014
C        8.26365713       6.15803690      -0.09406191
C        8.59130248       4.74786369      -0.22820905
C        9.97705411       4.35867558      -0.19022398
C       10.32100391       3.00046777      -0.03490282
C        4.46433147       5.95649445      -0.08152494
C        5.87145354       5.56714192      -0.01055946
C        6.19369429       4.16668562      -0.13080804
C        7.57524204       3.81022729      -0.18678889
C        7.89602876       2.36216144      -0.15758396
C        9.23492453       2.00323589       0.01230855
C        3.44855367       4.97479558      -0.19106031
C        3.78950299       3.58832849      -0.02149753
C        5.13881245       3.17108730      -0.09786051
C        5.51693806       1.79289731      -0.08823070
C        6.88471880       1.40410914      -0.16751239
C        7.25980482       0.03707853      -0.21076697
C        2.80290256       2.57719184       0.07338916
C        3.12694573       1.21085535       0.13974016
C        4.49368038       0.81874497       0.00476291
C        0.71182969       0.59064879       0.08629674
C        2.07736629       0.21274182       0.21079808
C        0.30362016       0.37962052       3.54312396
C        7.15880607       7.46671187       3.39077306
C        4.07594770       0.20514018       3.36864451
C        9.50711517       6.89254796       3.29794121
C       10.89776569       7.27760418       3.45524521
C       11.92294489       6.27245161       3.52619647
C        4.39117073       6.67158681       3.65415334
C        5.39616244       5.69411492       3.62646554
C        6.77821413       6.09760954       3.47836296
C        7.81154067       5.10578760       3.36351098
C        9.18606360       5.52068778       3.25727739
C       10.24194085       4.50706346       3.30033910
C       11.59624253       4.90160018       3.48646764
C        3.71084877       3.89026532       3.55862852
C        5.06403237       4.30848150       3.62496708
C        6.10057269       3.34333327       3.62758806
C        7.50097656       3.70509932       3.47009564
C        8.51007171       2.73213349       3.40597100
C        9.86452181       3.14470154       3.39845913
C        1.99058872       2.12663694       3.41052683
C        3.35302085       2.53410879       3.55931820
C        4.42542386       1.56593075       3.49969962
C        5.77074364       1.97530457       3.54362700
C        6.78649212       0.94878778       3.52732788
C        8.17176470       1.35981382       3.54050120
C        1.67777781       0.75491096       3.49707598
52
Lattice="8.887683617333732 0.0 0.0 4.443841808666866 7.696956204701445 0.0 0.0 0.0 30.000002767598083" Properties=species:S:1:pos:R:3 energy=-13217.90921803612 pbc="T T T"
C       13.02830432       7.29040956      -0.06564354
C        9.28092718       7.15680990      -0.15990365
C       10.61107035       6.76531010      -0.20241433
C       10.98878624       5.36119207      -0.19250367
C        6.88531338       6.53943584       0.04502678
C        8.24927242       6.15165465      -0.09253323
C        8.61472863       4.80456800      -0.18631429
C        9.93404394       4.36549421      -0.16449236
C       10.27163549       2.96742692      -0.02722120
C        4.48316625       5.92229376      -0.02374789
C        5.84886372       5.53235553       0.00613161
C        6.21568242       4.14960793      -0.10619804
C        7.59368132       3.73613778      -0.19899435
C        7.92784400       2.40389623      -0.13293397
C        9.30085870       1.98504903       0.01946403
C        3.43032947       4.95110724      -0.17809407
C        3.78451078       3.55924621      -0.03861432
C        5.17711926       3.15342036      -0.07871288
C        5.50311149       1.78038700      -0.03224985
C        6.87031097       1.38246497      -0.13552651
C        7.16213540       0.00932407      -0.18908902
C        2.74154110       2.59161210       0.06085130
C        3.10160428       1.18550945       0.14596598
C        4.46841092       0.80776157      -0.00669776
C        0.70139644       0.63254355       0.07498183
C        2.08821548       0.23097134       0.17331072
C        0.32992415       0.37944277       3.55883827
C        7.13514617       7.51102675       3.39893195
C        4.05548025       0.18077371       3.34829349
C        9.54062529       6.89892043       3.33450691
C       10.89320453       7.26306927       3.41683175
C       11.94623151       6.31228265       3.50145672
C        4.41717965       6.73452939       3.61169955
C        5.43311565       5.71853650       3.61961492
C        6.79064178       6.11499207       3.48176961
C        7.81378569       5.08743009       3.37503564
C        9.19557520       5.47311734       3.24796843
C       10.23131652       4.52691054       3.33345728
C       11.60857774       4.90248361       3.45518921
C        3.72353327       3.92557965       3.52975244
C        5.08530860       4.32333015       3.53888542
C        6.11906796       3.31334534       3.62156576
C        7.44941289       3.71164599       3.45280465
C        8.51538388       2.72925744       3.39237018
C        9.89263711       3.12887347       3.38216445
C        2.02486496       2.18242670       3.45377963
C        3.37980833       2.54535438       3.55745090
C        4.36714554       1.57550723       3.50172068
C        5.76089165       1.93089193       3.51693995
C        6.79871802       0.96558728       3.50483937
C        8.16524648       1.34088927       3.49829093
C        1.68397430       0.79745097       3.45199054
52
Lattice="8.887683617333732 0.0 0.0 4.443841808666866 7.696956204701445 0.0 0.0 0.0 30.000002767598083" Properties=species:S:1:pos:R:3 energy=-13218.200613045043 pbc="T T T"
C       12.99053967       7.26080913      -0.00763808
C        9.21866273       7.08045759       0.03767134
C       10.60272037       6.67737625       0.16715866
C       10.96132685       5.27512908       0.14152481
C        6.83231168       6.49165921      -0.10275584
C        8.18191622       6.04402481      -0.01808910
C        8.53155236       4.70937024       0.09766764
C        9.89969216       4.31827750       0.04934531
C       10.24937185       2.89787901      -0.07417305
C        4.46457411       5.92570841       0.03213698
C        5.81704492       5.51209694      -0.01049813
C        6.12607501       4.11346794       0.03081893
C        7.50585234       3.73863522       0.05759308
C        7.84405003       2.35684039       0.08296031
C        9.22982477       1.95403190      -0.06049668
C        3.42862659       4.88613205       0.07594259
C        3.74989236       3.52605871       0.00898811
C        5.12482413       3.14990261       0.06519383
C        5.47612226       1.77188060       0.04013056
C        6.79216868       1.38277781       0.08369265
C       11.60899102       7.68294922       0.11591317
C        2.73835754       2.53529885      -0.07523780
C        3.07252644       1.14718398      -0.16457946
C        4.46188558       0.76527933      -0.09038152
C        0.70902563       0.57837223      -0.10561234
C        2.07152530       0.15171898      -0.21925738
C        0.32693166       0.37925257       3.36875560
C        7.17891446       7.51979356       3.49334937
C        4.10025907       0.20753897       3.50456474
C        9.59451754       6.94834572       3.53210234
C       10.93227301       7.35173902       3.38156364
C       11.95930174       6.33966294       3.30939654
C        4.44638102       6.73128449       3.26230959
C        5.48456379       5.74892349       3.29215177
C        6.84333241       6.14306382       3.44546342
C        7.85843653       5.17260787       3.44725340
C        9.24772279       5.56896656       3.50008535
C       10.23602788       4.55635455       3.53197880
C       11.58173072       4.96632562       3.38174762
C        3.75842187       3.98582392       3.31598409
C        5.13650610       4.36929903       3.23749518
C        6.17414760       3.38786768       3.31574146
C        7.53870300       3.79857731       3.42573899
C        8.54665875       2.78749843       3.42221857
C        9.89857764       3.18849827       3.45245536
C        2.05874126       2.18124909       3.49547620
C        3.42074589       2.59239155       3.41275319
C        4.44035606       1.57160909       3.38368958
C        5.84548551       1.99938575       3.30761634
C        6.85216144       1.03001587       3.30370842
C        8.21035058       1.42940793       3.34099581
C        1.70279753       0.79780381       3.37738732
52
Lattice="8.887683617333732 0.0 0.0 4.443841808666866 7.696956204701445 0.0 0.0 0.0 30.000002767598083" Properties=species:S:1:pos:R:3 energy=-13216.399837947896 pbc="T T T"
C       12.92217738       7.22254765      -0.01361860
C        9.16857441       7.07825433       0.10645756
C       10.53661911       6.67340523       0.14246157
C       10.83310157       5.28996351       0.20962224
C        6.79845850       6.41929303      -0.01936449
C        8.18122120       6.12343981       0.13456309
C        8.50272871       4.69119582       0.13919979
C        9.89179456       4.27883041       0.25862715
C       10.21569463       2.91064528       0.10397346
C        4.39656289       5.78446623       0.00276940
C        5.79582735       5.44994270      -0.03626619
C        6.15739788       4.00787426       0.10484178
C        7.54428091       3.67566332       0.11021350
C        7.85646791       2.27651083       0.06138279
C        9.20611777       1.89451997       0.00753587
C        3.36264532       4.84280548       0.04699452
C        3.70108653       3.50487581      -0.00105763
C        5.12076512       3.05400984      -0.05794325
C        5.43850425       1.66637135       0.06854270
C        6.80623700       1.31604820       0.09940163
C       11.58910661       7.57548557       0.09935630
C        2.64736454       2.46724230      -0.13631751
C        3.00940256       1.14389554      -0.15657343
C        4.36312475       0.71997436       0.02293733
C        0.63424199       0.50819331      -0.12519013
C        1.94044174       0.15614594      -0.10195862
C        0.41621822       0.53706672       3.22646290
C        7.22836375       7.60378839       3.29107547
C        4.12386920       0.32815372       3.33802555
C        9.58612223       6.91878973       3.47598195
C       10.97466193       7.33641488       3.46131461
C       12.03759068       6.39307169       3.46149414
C        4.53214272       6.83087188       3.30565216
C        5.50609064       5.83254682       3.26753555
C        6.86729716       6.18192610       3.28207936
C        7.85702161       5.15848356       3.56563024
C        9.27077122       5.58119068       3.57661630
C       10.33553616       4.60883988       3.45497591
C       11.73775756       5.02954905       3.37015808
C        3.82170307       3.99839910       3.26466661
C        5.17300426       4.41303265       3.19252172
C        6.17433513       3.40372597       3.28100128
C        7.54599623       3.77495741       3.35715806
C        8.58182376       2.81456231       3.39912126
C        9.96731765       3.25234117       3.44910115
C        2.09412224       2.28438621       3.29362001
C        3.43163152       2.65694902       3.28249886
C        4.46458033       1.65472049       3.39927058
C        5.81932461       2.01882756       3.32282850
C        6.85791532       1.02235291       3.42805334
C        8.25300613       1.42138413       3.27062935
C        1.78535433       0.89867457       3.31193309
52
Lattice="8.887683617333732 0.0 0.0 4.443841808666866 7.696956204701445 0.0 0.0 0.0 30.000002767598083" Properties=species:S:1:pos:R:3 energy=-13217.995406965205 pbc="T T T"
C       12.96540352       7.20109456      -0.02354525
C        9.15919969       7.03185085       0.14526030
C       10.50072354       6.60824429       0.14316992
C       10.90881753       5.24194602       0.17359957
C        6.76021479       6.44306314       0.02240763
C        8.12448400       6.03364755       0.10639091
C        8.48680909       4.64882912       0.20217436
C        9.83466275       4.24420133       0.22413049
C       10.18972482       2.86767156       0.09105521
C        4.42122265       5.83334938      -0.00807624
C        5.76068279       5.38593005      -0.01224634
C        6.11402242       4.07985206       0.02856057
C        7.44436290       3.65139283       0.11974110
C        7.82938625       2.29523896       0.09390460
C        9.18293336       1.89758000       0.01286759
C        3.37769395       4.86409148       0.04469349
C        3.72862947       3.43193281      -0.02771891
C        5.07558903       3.08676184      -0.02380211
C        5.38021883       1.70528963       0.02887253
C        6.80783234       1.29748982       0.05228269
C       11.56501565       7.64276800       0.08169825
C        2.68025697       2.52089636      -0.06332030
C        3.02687219       1.09187060      -0.09419434
C        4.37950031       0.71492172       0.02962354
C        0.62027944       0.52243582      -0.07029269
C        2.03683045       0.10123960      -0.08968473
C        0.40993819       0.47298297       3.27804346
C        7.22003244       7.56657211       3.28408531
C        4.16467878       0.23246092       3.35109755
C        9.62282215       6.99757460       3.47385246
C       10.99219022       7.38153054       3.47414131
C       12.03295131       6.42679068       3.44227541
C        4.48328268       6.80935835       3.29365023
C        5.53820096       5.81147767       3.26674455
C        6.91922701       6.20092353       3.30098702
C        7.92275847       5.22278151       3.46232158
C        9.25153294       5.58511637       3.52638845
C       10.30494742       4.64925484       3.49990048
C       11.66545714       5.02618950       3.39115701
C        3.82159375       4.04624595       3.27914909
C        5.20636507       4.43523675       3.25920513
C        6.21759505       3.43061121       3.28660319
C        7.57500030       3.84433466       3.39167516
C        8.58993733       2.84554211       3.38628300
C        9.95213571       3.24375567       3.37111617
C        2.08487993       2.25008064       3.29636364
C        3.47307834       2.63413789       3.25140441
C        4.48840554       1.67608648       3.33523659
C        5.86675907       2.04839688       3.35318260
C        6.89719266       1.05986960       3.41401435
C        8.24700339       1.46403524       3.32368438
C        1.75416745       0.88167066       3.21988601
52
Lattice="8.887683617333732 0.0 0.0 4.443841808666866 7.696956204701445 0.0 0.0 0.0 30.000002767598083" Properties=species:S:1:pos:R:3 energy=-13218.130903330026 pbc="T T T"
C       12.91099845       7.23146911       0.00464204
C        9.21155170       6.99264105       0.09203552
C       10.52687821       6.58316325       0.13072272
C       10.86808972       5.25084170       0.09676466
C        6.78739511       6.43538240       0.00118028
C        8.18424390       6.02763236       0.14803592
C        8.49800224       4.60592916       0.17104703
C        9.85903989       4.22568117       0.10442139
C       10.18978259       2.85210300       0.03372876
C        4.33973237       5.86006486      -0.00914009
C        5.71164144       5.43094261      -0.00593964
C        6.07982617       4.09804781       0.00679286
C        7.41546016       3.63589449       0.10127515
C        7.79764744       2.25514307       0.06350161
C        9.16127052       1.88501193       0.06287059
C        3.33339151       4.87232326       0.01395277
C        3.68707688       3.43675349      -0.00024797
C        5.04838027       3.06943175      -0.02339061
C        5.36862840       1.64960385      -0.00823799
C        6.78749109       1.26001846       0.02344660
C       11.55528897       7.61475491       0.02245473
C        2.66325750       2.47734049       0.03981949
C        3.04554432       1.06876440       0.03207654
C        4.39837331       0.64357139       0.01786513
C        0.59844684       0.51376855      -0.00536638
C        2.01081087       0.10771873      -0.00492911
C        0.41320885       0.47940788       3.31173667
C        7.23052346       7.60098078       3.28334941
C        4.18351000       0.32113334       3.36686430
C        9.65185554       7.04536012       3.47887934
C       11.03111828       7.41351020       3.44645529
C       12.01201281       6.40006541       3.38094328
C        4.46767769       6.78196207       3.32599962
C        5.50997012       5.80063115       3.31328846
C        6.90435436       6.20951970       3.33269116
C        7.94982769       5.25979160       3.33907429
C        9.30032810       5.61496655       3.42710680
C       10.33181844       4.63130261       3.43830795
C       11.67339207       4.99648153       3.44329838
C        3.80646247       4.02182615       3.34855923
C        5.17023130       4.42727694       3.33248852
C        6.19970058       3.47370137       3.39603724
C        7.59987337       3.86571043       3.38244797
C        8.62436910       2.85974996       3.37230712
C        9.99701229       3.22571722       3.36357142
C        2.12338227       2.24609363       3.23950113
C        3.48758482       2.63406057       3.28592150
C        4.52490104       1.73121056       3.26980991
C        5.86757051       2.08995658       3.34435091
C        6.91947675       1.11285086       3.40920167
C        8.28105388       1.47770627       3.40877684
C        1.76403367       0.88163511       3.24964553
52
Lattice="8.887683617333732 0.0 0.0 4.443841808666866 7.696956204701445 0.0 0.0 0.0 30.000002767598083" Properties=species:S:1:pos:R:3 energy=-13217.517045667053 pbc="T T T"
C        8.83444995       0.00267253      -0.05072645
C        9.55680888       7.40350267      -0.02639198
C       10.90431058       7.04346883       0.09419078
C       11.21073303       5.63594592       0.05351185
C        7.17104975       6.86570627      -0.24705716
C        8.52533453       6.44917253      -0.15108796
C        8.87527374       5.06796073      -0.02965198
C       10.20086287       4.65889531      -0.01733187
C       10.56546320       3.29503760      -0.19435764
C        4.70161130       6.27390208      -0.06348561
C        6.11188849       5.89682343      -0.14186254
C        6.44759230       4.48515176      -0.07311542
C        7.82751717       4.07097326      -0.01670885
C        8.12063119       2.71273523      -0.03376253
C        9.51639214       2.30510074      -0.20334398
C        3.66823143       5.30213253       0.07348870
C        4.04386138       3.86813588      -0.09522086
C        5.39460354       3.45252291      -0.02936580
C        5.75833644       2.08495903      -0.05946305
C        7.13857593       1.69558517       0.01569743
C        7.45916267       0.34309214       0.06567287
C        3.04447691       2.88643346      -0.21559476
C        3.38510450       1.48204702      -0.33887227
C        4.75491696       1.12601885      -0.14749200
C        0.94637477       0.93394357      -0.23409270
C        2.35657464       0.55412130      -0.38919167
C        0.04376918       0.04674211       3.40596833
C        6.90816540       7.17586154       3.64141285
C        8.27473296       7.60456429       3.65750311
C        9.27579810       6.61784832       3.61124894
C       10.65742584       6.96983081       3.45469417
C       11.66026940       5.96119870       3.35922623
C        4.13277377       6.38612775       3.30862420
C        5.13887378       5.37226524       3.33056167
C        6.50440415       5.81952903       3.54666392
C        7.57842917       4.79582341       3.58967320
C        8.96174735       5.20881540       3.70423277
C        9.98355278       4.19962870       3.64995925
C       11.35240004       4.57776676       3.46061248
C        3.41731346       3.57412509       3.41528085
C        4.78253099       4.02097027       3.38179561
C        5.86240055       3.03142446       3.32837530
C        7.22968268       3.41007622       3.51530462
C        8.28241370       2.40603371       3.53244452
C        9.64566616       2.80160140       3.61187819
C        1.73162295       1.81197472       3.61528839
C        3.11518288       2.20932172       3.49911126
C        4.15361539       1.28130980       3.49517224
C        5.52162098       1.67026949       3.41728058
C        6.54729078       0.65349627       3.35600000
C        7.91834307       1.04751572       3.41087789
C        1.41949639       0.43948884       3.55642437
64
Lattice="9.860000170089029 0.0 0.0 4.930000085044514 8.53900664730135 0.0 0.0 0.0 29.999997077512198" Properties=species:S:1:pos:R:3 energy=-16267.551745464196 pbc="T T T"
C        4.96345901       6.99298031       0.06982458
C        6.20111975       7.68953904       0.02851512
C        9.82727877       1.54859289       3.53257578
C       11.05988528       2.32306830       3.44568651
C        7.44884362       6.98811342       0.22731836
C        8.65856802       7.64345044       0.18662417
C        2.41340463       1.55799046       3.35703524
C        3.65900761       2.30669873       3.25311281
C        9.91437314       7.01303062       0.06112214
C       11.17273298       7.70620342       0.04815131
C        4.87669495       1.54747575       3.35353199
C        6.06820301       2.26887478       3.33991828
C       12.38847495       6.95872667      -0.00370933
C       13.58601240       7.71384197       0.01774899
C        7.35030672       1.59168800       3.41350642
C        8.57370892       2.25753479       3.47492634
C        1.31453522       0.61842907      -0.05834951
C        2.55758051       1.27847819      -0.07552267
C       11.02346836       3.71905600       3.29202037
C       12.26686565       4.43036528       3.11804856
C        3.75069871       0.52912113       0.11408415
C        4.97499620       1.25980631       0.14154227
C        3.65303442       3.69193508       3.17157949
C        4.86271051       4.40593812       3.30827853
C        6.25054498       0.56063172       0.10103937
C        7.44482271       1.26046693       0.06677291
C        6.05411208       3.66065423       3.40009978
C        7.32445577       4.39097655       3.55191618
C        8.70273589       0.55650728      -0.00240781
C        9.93942642       1.32824654      -0.08643572
C        8.53822869       3.65660867       3.47503085
C        9.73321141       4.38884778       3.31253904
C        2.52766527       2.69856668      -0.15341569
C        3.76061984       3.39900532      -0.00495958
C       12.26802124       5.82858726       3.11366973
C       13.47465355       6.57933852       3.12007873
C        4.96885637       2.67181355       0.18413748
C        6.21250115       3.44043507       0.30691025
C        4.83990039       5.86701957       3.28496357
C        6.10077158       6.55607779       3.43079495
C        7.41316323       2.73270102       0.16249675
C        8.67641857       3.42366913       0.04309609
C        7.33998428       5.81932379       3.52853220
C        8.58095602       6.51298959       3.47071020
C        9.92242383       2.70100210      -0.13269884
C       11.18568311       3.43882690      -0.16423211
C        9.79921919       5.80745136       3.32064198
C       11.03444254       6.46575822       3.17888476
C        3.79657039       4.86011536       0.01102348
C        5.03096944       5.60148286       0.20544494
C       13.47525797       8.02946057       3.25156874
C        9.84043793       0.10759035       3.44060663
C        6.21090778       4.87462534       0.30082466
C        7.48485037       5.57300521       0.28780256
C        6.12888342       7.93649162       3.45416315
C        2.39309402       0.16071504       3.41340289
C        8.69921982       4.84277655       0.14810509
C        9.93026746       5.54609727       0.00669987
C        8.53537028       7.93712660       3.42742283
C        4.87891345       0.09062129       3.30330514
C       11.15777438       4.82850124      -0.08790092
C       12.41182244       5.55090106      -0.05725702
C       11.06134851       7.95557565       3.17486188
C        7.30553739       0.18146147       3.19418847
64
Lattice="9.860000170089029 0.0 0.0 4.930000085044514 8.53900664730135 0.0 0.0 0.0 29.999997077512198" Properties=species:S:1:pos:R:3 energy=-16267.362630019867 pbc="T T T"
C        5.17179588       6.61868780      -0.17628399
C        6.39590406       7.34113199      -0.16362966
C        9.60127574       1.85609475       3.60627140
C       10.79455564       2.57726600       3.51363078
C        7.63501127       6.62980890      -0.12671185
C        8.89678464       7.36146429      -0.18365729
C        2.18990604       1.83983659       3.41970442
C        3.39308538       2.60046658       3.41482470
C       10.16775444       6.67286752      -0.28055743
C       11.34968351       7.37310008      -0.34427275
C        4.63745585       1.93000334       3.54602285
C        5.91777194       2.61738240       3.67704648
C       12.57982995       6.62093687      -0.48454111
C       13.85107582       7.33791270      -0.39756901
C        7.14537155       1.92135217       3.74831555
C        8.38761423       2.59174246       3.78855125
C        1.47398720       0.21791586      -0.17301737
C        2.69179484       0.92090134      -0.19490460
C       10.82569056       3.99692658       3.57446600
C       12.04651338       4.71891622       3.49841680
C        3.96270646       0.26847301      -0.17997656
C        5.21640351       0.96901912      -0.13981677
C        3.42256283       4.05193256       3.50795438
C        4.70312444       4.74185353       3.73326623
C        6.42765326       0.25499932      -0.27421153
C        7.64398978       0.96572884      -0.25098729
C        5.95174852       4.07330707       3.75304342
C        7.14492686       4.76833256       3.80939726
C        8.87778146       0.24987410      -0.34951827
C       10.09269322       0.97783396      -0.25990270
C        8.41067086       4.08296395       3.83059232
C        9.63261082       4.73113276       3.70349297
C        2.70934564       2.36603128      -0.20525267
C        3.92797264       3.09203591      -0.15719897
C       12.09171162       6.17328695       3.52286368
C       13.30831437       6.85846132       3.49382598
C        5.19552693       2.40236636      -0.09976348
C        6.47280713       3.08312937      -0.12068936
C        4.66031232       6.11685619       3.66126259
C        5.90739725       6.86569856       3.65770609
C        7.70505079       2.34379205      -0.14594575
C        8.90892132       3.08599271      -0.14878247
C        7.13510137       6.17037825       3.69104472
C        8.38534052       6.90966528       3.75864685
C       10.08277110       2.40833364      -0.26340202
C       11.35616153       3.09760286      -0.32014829
C        9.63692260       6.18255436       3.72141451
C       10.85746047       6.89878083       3.70105065
C        3.94501861       4.47568283      -0.33554468
C        5.14428254       5.19995210      -0.13225415
C       13.27384775       8.25531965       3.53381420
C        9.54924057       0.48195878       3.53269115
C        6.38702020       4.51429558      -0.10645251
C        7.61621909       5.19880440      -0.06489655
C        5.89130573       8.30741102       3.53904296
C        2.26111792       0.45349296       3.55304416
C        8.85960061       4.50767656      -0.11274713
C       10.10183048       5.23249404      -0.28717250
C        8.44619052       8.30578313       3.67908257
C        4.67142651       0.52289454       3.61455577
C       11.31607964       4.51675959      -0.41837361
C       12.60730878       5.21066696      -0.48558036
C       10.81356867       8.30370169       3.73388642
C        7.13510334       0.44097076       3.66483487
52
Lattice="8.887683617333732 0.0 0.0 4.443841808666866 7.696956204701445 0.0 0.0 0.0 30.000002767598083" Properties=species:S:1:pos:R:3 energy=-13216.71284791142 pbc="T T T"
C       12.89159753       7.15918913       0.03382208
C        9.10821638       6.92266565      -0.13943531
C       10.50676094       6.56087116      -0.22223120
C       10.81218352       5.13145256      -0.18699775
C        6.71296342       6.31772813      -0.01146333
C        8.08449209       5.91449482      -0.10412188
C        8.35435772       4.52373320      -0.19250989
C        9.79459263       4.10159044      -0.20875569
C       10.14208062       2.74515306      -0.05550358
C        4.36593237       5.77391210       0.08472807
C        5.66976623       5.40837856       0.01964800
C        5.97608735       3.98853111      -0.01782603
C        7.32974911       3.61423965      -0.13774221
C        7.74083381       2.23255680      -0.08532176
C        9.09888609       1.85647891      -0.00080256
C        3.34545210       4.78803247      -0.02791710
C        3.65230559       3.45805016       0.01675062
C        5.01988014       3.04308332       0.00386259
C        5.33182539       1.64407127       0.01819664
C        6.66604534       1.29250294      -0.05528761
C       11.47655831       7.51711304      -0.10065035
C        2.64297580       2.37926046       0.05641635
C        3.00883552       1.02470637       0.11498885
C        4.33172101       0.59091009       0.01735320
C        0.63290350       0.49386014       0.09917411
C        1.93541665       0.06511295       0.08594212
C        0.42313017       0.51768802       3.54881030
C        7.32405744       7.63393186       3.52793402
C        4.24078490       0.37074528       3.41436986
C        9.72373735       7.05792820       3.28584862
C       11.04956200       7.48327585       3.29099281
C       12.06226733       6.47730738       3.35552362
C        4.53669233       6.85653506       3.52338263
C        5.56084411       5.91644033       3.56040872
C        6.96952241       6.24240235       3.48430615
C        7.99304672       5.30245248       3.34200012
C        9.35026977       5.74161515       3.25923534
C       10.32631874       4.70324930       3.29736617
C       11.72613069       5.09430115       3.38355804
C        3.86064890       4.05819722       3.52533259
C        5.25181490       4.47292142       3.52524371
C        6.35434272       3.56868938       3.48914283
C        7.66803657       3.95874848       3.38582440
C        8.65070331       2.94447270       3.40653626
C       10.02996249       3.32929162       3.40227639
C        2.12928458       2.28053429       3.50791629
C        3.47656409       2.68337122       3.52478778
C        4.58803026       1.73586949       3.48621256
C        6.00336276       2.18302840       3.46024009
C        6.97585222       1.15519979       3.39026291
C        8.34958415       1.51081201       3.46067114
C        1.80653368       0.85992250       3.55750156
52
Lattice="8.887683617333732 0.0 0.0 4.443841808666866 7.696956204701445 0.0 0.0 0.0 30.000002767598083" Properties=species:S:1:pos:R:3 energy=-13216.981699377264 pbc="T T T"
C       12.85870777       7.15328682       0.02164506
C        9.08657576       6.90005005      -0.11489997
C       10.47832302       6.47509524      -0.23035098
C       10.84962911       5.12632081      -0.18307473
C        6.70394331       6.34997087      -0.08584258
C        8.03191167       5.90540805      -0.13927711
C        8.43186543       4.55736419      -0.17445456
C        9.77909962       4.17365356      -0.19943873
C       10.15524505       2.76366522      -0.09413123
C        4.30458869       5.79449598       0.00614761
C        5.69238271       5.34777611      -0.03417936
C        5.99649347       4.00753475      -0.03020035
C        7.34639486       3.59399261      -0.07645008
C        7.66804013       2.22805429      -0.08312828
C        9.07271719       1.77657863      -0.08150095
C        3.29314897       4.77447253       0.06051268
C        3.61848263       3.36342388      -0.04769309
C        4.93724779       2.99339851       0.04467128
C        5.32803568       1.64758990      -0.08932122
C        6.70051089       1.21740735      -0.05050782
C       11.52942848       7.57816876      -0.06379935
C        2.62627496       2.40750463      -0.01458113
C        2.94512594       0.99417896      -0.00782649
C        4.35553112       0.63253378      -0.02272758
C        0.53344055       0.40776959       0.00317646
C        6.39708804       7.69212575      -0.04662123
C        0.45697181       0.52711163       3.54578137
C        7.33173818       7.64415803       3.60988912
C        4.26458256       0.33678722       3.52707102
C        9.70650147       7.11734681       3.33866191
C       11.07682141       7.48617679       3.35264312
C       12.06629345       6.48014433       3.37388380
C        4.54376426       6.83375238       3.49009737
C        5.61296771       5.85120384       3.47685205
C        6.95277979       6.29352608       3.51475536
C        8.00282761       5.34631676       3.39158895
C        9.36500644       5.70892803       3.40187111
C       10.38259556       4.73499788       3.36100465
C       11.71643778       5.09850947       3.39777567
C        3.88158472       4.14364874       3.53526102
C        5.26711861       4.51419671       3.59796452
C        6.29404868       3.55608309       3.35796951
C        7.69733393       3.94734381       3.41326068
C        8.69050058       2.94277959       3.47946770
C       10.01416819       3.32606184       3.44778666
C        2.16229255       2.31638187       3.55017811
C        3.56612173       2.72544018       3.49014270
C        4.60566164       1.74459186       3.48781768
C        5.98018102       2.15854017       3.51693906
C        6.98929484       1.17928363       3.37890000
C        8.32722807       1.58642309       3.47342674
C        1.83229196       0.92201363       3.62285892
52
Lattice="8.887683617333732 0.0 0.0 4.443841808666866 7.696956204701445 0.0 0.0 0.0 30.000002767598083" Properties=species:S:1:pos:R:3 energy=-13218.25181099167 pbc="T T T"
C       13.27432963       7.60725015      -0.07470365
C        9.52359205       7.44614044      -0.06589329
C       10.87971303       7.02409545       0.06539735
C       11.22533994       5.67186550       0.04535474
C        7.11794139       6.83944494      -0.27235062
C        8.51225986       6.43856064      -0.11056190
C        8.81007192       5.05571172      -0.02937735
C       10.20407843       4.64074133      -0.06236843
C       10.53978935       3.26187943      -0.20226501
C        4.74278971       6.25007331      -0.05392069
C        6.08371009       5.84185667      -0.16270682
C        6.43346977       4.48644492      -0.06844583
C        7.78897128       4.10860460      -0.05944438
C        8.17511980       2.67966772      -0.05679052
C        9.50950418       2.31784212      -0.18448343
C        3.72696036       5.25437900       0.00939961
C        4.05499587       3.89546462      -0.10166266
C        5.42901399       3.49413327      -0.04358165
C        5.74407259       2.10165810      -0.06937992
C        7.11114054       1.71306636      -0.00351330
C        7.47693715       0.32322283       0.03923290
C        3.03048859       2.89119992      -0.21927693
C        3.37800324       1.51404534      -0.28663935
C        4.72691364       1.08696993      -0.19628983
C        0.97904856       0.94511628      -0.24484591
C        2.33131585       0.50464445      -0.36363424
C        0.06021317       0.06602571       3.44921314
C        6.89701046       7.17042672       3.63018682
C        8.27031578       7.57628635       3.65320503
C        9.29678103       6.58172433       3.66694094
C       10.63485468       6.97079335       3.45246958
C       11.67932459       5.99811459       3.37076955
C        4.14567602       6.38945441       3.32481578
C        5.16952651       5.42726400       3.38898930
C        6.56252516       5.77255851       3.55580668
C        7.56499810       4.80847236       3.58110281
C        8.93222602       5.20502925       3.65947884
C        9.97543833       4.23460441       3.65294284
C       11.32298003       4.60684548       3.50182733
C        3.47648677       3.59844357       3.43925449
C        4.83939883       3.99774408       3.36849075
C        5.87048390       3.05554919       3.41140404
C        7.24004572       3.42393301       3.50932943
C        8.25142146       2.44535283       3.54425891
C        9.62465301       2.85270825       3.61631492
C        1.76506108       1.82538090       3.60990957
C        3.09630722       2.22182136       3.50134829
C        4.16379356       1.26890703       3.49917258
C        5.53760370       1.65614163       3.41276652
C        6.54439784       0.65183427       3.39325273
C        7.92180393       1.04152187       3.43217722
C        1.41060515       0.44559379       3.54732428
52
Lattice="8.887683617333732 0.0 0.0 4.443841808666866 7.696956204701445 0.0 0.0 0.0 30.000002767598083" Properties=species:S:1:pos:R:3 energy=-13217.317256557402 pbc="T T T"
C       12.79655797       7.04619201      -0.22531878
C        8.94512383       6.79838028      -0.19139627
C       10.38844899       6.41874021      -0.24477125
C       10.68285884       4.99812486      -0.24128817
C        6.60097150       6.22661871      -0.18833090
C        7.91330553       5.77345172      -0.14407824
C        8.26049045       4.41910827      -0.29114718
C        9.64343979       4.02816929      -0.21322531
C       10.06181061       2.68998454      -0.17485095
C        4.23037031       5.68308353      -0.27693578
C        5.59590158       5.29018837      -0.27657672
C        5.87615246       3.84443687      -0.18183934
C        7.24801975       3.46242823      -0.26663851
C        7.59983338       2.10169543      -0.25963235
C        8.98502864       1.71445017      -0.16851670
C        3.18841561       4.62756978      -0.28320604
C        3.54851700       3.30824470      -0.21673594
C        4.88741721       2.88668409      -0.29118096
C        5.26231748       1.52986987      -0.26506272
C        6.57022367       1.10386364      -0.22448156
C       11.41766763       7.42316311      -0.21538412
C        2.54705192       2.27484173      -0.21148688
C        2.84054279       0.93716624      -0.13718495
C        4.20420586       0.50684771      -0.19239702
C        0.50850882       0.31940113      -0.18008047
C        6.26743806       7.61980489      -0.09145515
C        0.54310146       0.68136360       3.57880090
C        2.99175162       0.06334519       3.53853791
C        4.33760111       0.47370998       3.53202857
C        9.80850719       7.19501005       3.53600403
C       11.16647859       7.58703156       3.64110445
C       12.18433522       6.58993033       3.69745236
C        4.67638272       6.97018721       3.66605395
C        5.70929598       6.02284279       3.63416939
C        7.07602885       6.38179767       3.55165791
C        8.10984066       5.43954234       3.67007119
C        9.47191728       5.83822694       3.60025932
C       10.47022901       4.82029298       3.52481622
C       11.84028143       5.22626548       3.63556475
C        3.98226085       4.24242734       3.68097460
C        5.36329934       4.62797506       3.68918415
C        6.42033377       3.66950415       3.67292591
C        7.79771676       4.03473995       3.63363702
C        8.77562592       3.05802352       3.63254916
C       10.12535577       3.43466400       3.63723208
C        2.24665444       2.42541064       3.51830332
C        3.62723166       2.82417523       3.59061707
C        4.72352921       1.82366202       3.62476711
C        6.09818902       2.27025302       3.65344144
C        7.08419219       1.28223856       3.66760663
C        8.43464372       1.66425342       3.60941541
C        1.92810208       1.00722252       3.63602602
52
Lattice="8.887683617333732 0.0 0.0 4.443841808666866 7.696956204701445 0.0 0.0 0.0 30.000002767598083" Properties=species:S:1:pos:R:3 energy=-13218.029145815832 pbc="T T T"
C       12.69253208       6.97959304      -0.14998499
C        8.93331210       6.72796317      -0.34315969
C       10.28321259       6.34563635      -0.27426947
C       10.62787163       4.96886128      -0.27892217
C        6.53140760       6.15002910      -0.23272666
C        7.89822669       5.77203236      -0.38924144
C        8.22690034       4.35088819      -0.33726893
C        9.61477524       3.94842188      -0.36089061
C        9.93609344       2.62551239      -0.28948341
C        4.13162904       5.60374229      -0.09932253
C        5.48460645       5.19534345      -0.10864838
C        5.83441590       3.80636737      -0.09239991
C        7.18936904       3.36378739      -0.20496065
C        7.57131102       2.02682292      -0.18047419
C        8.92509099       1.62847249      -0.26504583
C        3.12498066       4.57684955      -0.12654462
C        3.44693522       3.21698418      -0.07331628
C        4.82696585       2.81464675      -0.05791126
C        5.15374732       1.41917377      -0.15303880
C        6.52332425       1.02942751      -0.19226993
C       11.28211268       7.33597227      -0.18601477
C        2.41577017       2.19310526      -0.21127357
C        2.82797116       0.84496364      -0.23614486
C        4.16117436       0.37945432      -0.27480718
C        0.41108025       0.25993186      -0.19572635
C        6.21027515       7.56472969      -0.24018965
C        0.64500586       0.74783903       3.71780960
C        3.02312247       0.15897933       3.83757380
C        4.40197904       0.57917212       3.73729674
C        9.90639169       7.26166946       3.56257110
C        6.82669200       0.00073590       3.46741156
C       12.24010721       6.66328127       3.48594327
C        4.72374518       7.03967378       3.59224974
C        5.77289980       6.07710476       3.62829907
C        7.14540256       6.47974794       3.69477895
C        8.19490290       5.50755978       3.57490187
C        9.54129542       5.89169702       3.51536772
C       10.53745278       4.85236863       3.54299864
C       11.91985464       5.28212813       3.50200331
C        4.05220159       4.27790698       3.60497246
C        5.42037960       4.69159843       3.56824233
C        6.46397941       3.71304225       3.54784954
C        7.82467755       4.13267423       3.51758609
C        8.84542268       3.11665290       3.56805746
C       10.23180356       3.47554379       3.62333619
C        2.35082165       2.49768884       3.79407037
C        3.71126382       2.90109102       3.73031813
C        4.76320206       1.93460253       3.68878065
C        6.10122771       2.34622671       3.50861930
C        7.17464748       1.37385991       3.51121539
C        8.53891491       1.72483809       3.58832760
C        1.99717449       1.13325432       3.84345656
52
Lattice="8.887683617333732 0.0 0.0 4.443841808666866 7.696956204701445 0.0 0.0 0.0 30.000002767598083" Properties=species:S:1:pos:R:3 energy=-13217.70883095631 pbc="T T T"
C       12.69413631       6.95627887      -0.16701646
C        8.90202034       6.72516444      -0.35941082
C       10.29908510       6.33991179      -0.21161664
C       10.65684637       4.92526897      -0.23619552
C        6.52900970       6.15546747      -0.23667013
C        7.85515875       5.69538853      -0.33564782
C        8.23070516       4.37196267      -0.32697521
C        9.58223654       3.98929812      -0.30801423
C        9.95942894       2.55592094      -0.28887638
C        4.14769975       5.57408853      -0.09433832
C        5.51685452       5.18476800      -0.10367750
C        5.82255528       3.79771699      -0.09647136
C        7.19014938       3.40846311      -0.19900235
C        7.51834220       2.01490009      -0.19705772
C        8.92021432       1.61283639      -0.22751404
C        3.11885971       4.56067219      -0.16682715
C        3.44677169       3.15999191      -0.06762016
C        4.79672640       2.81148184      -0.09735391
C        5.15222841       1.44284967      -0.10969890
C        6.50339629       1.05154273      -0.16757105
C       11.32266896       7.37645922      -0.21070298
C        2.43831734       2.21435393      -0.20605117
C        2.74845394       0.80358969      -0.29105209
C        4.14196452       0.46476186      -0.26947901
C        0.38745590       0.24208095      -0.22418115
C        6.21647964       7.51870571      -0.24415445
C        0.63288662       0.71635441       3.66153545
C        3.04561720       0.14791061       3.77017939
C        4.41559853       0.51658861       3.71710481
C        9.88924913       7.30063662       3.59247371
C       11.24401207       7.67911951       3.49926413
C       12.27044443       6.68146014       3.48922727
C        4.75159385       7.06726382       3.62160131
C        5.79429067       6.07065586       3.62880834
C        7.15848967       6.47329548       3.70240813
C        8.17355379       5.50830190       3.58030380
C        9.55508200       5.89824369       3.54474329
C       10.54739632       4.90264092       3.54151884
C       11.89103633       5.29146819       3.54852056
C        4.05523495       4.32568450       3.53535079
C        5.44692622       4.71156461       3.48325830
C        6.48335900       3.73134199       3.57455081
C        7.84743002       4.12956709       3.54486416
C        8.86220885       3.12633070       3.53238230
C       10.19906311       3.51274852       3.64947753
C        2.34640980       2.51665693       3.75134727
C        3.74125975       2.92606453       3.77201558
C        4.76117655       1.91561044       3.67947969
C        6.17507637       2.33445675       3.50610498
C        7.16750178       1.36141182       3.50941386
C        8.51367300       1.76436251       3.58804053
C        1.99716827       1.12294549       3.81920118
52
Lattice="8.887683617333732 0.0 0.0 4.443841808666866 7.696956204701445 0.0 0.0 0.0 30.000002767598083" Properties=species:S:1:pos:R:3 energy=-13217.77318247773 pbc="T T T"
C       12.68184731       6.87729758      -0.20890767
C        8.84958656       6.72366597      -0.07384154
C       10.21928970       6.30874624      -0.05946038
C       10.62388461       4.91611110      -0.09169157
C        6.45152954       6.11737308      -0.21664706
C        7.81067056       5.70886403      -0.03759490
C        8.17900461       4.32381809      -0.01272094
C        9.54297609       3.93843835      -0.00348219
C        9.89633528       2.55559210      -0.13992947
C        4.12997682       5.54297098      -0.23076959
C        5.45916456       5.10198989      -0.26901774
C        5.80765864       3.75228493      -0.22275557
C        7.14180571       3.31187621      -0.10823599
C        7.53987173       1.99345411      -0.14866873
C        8.90836615       1.59041454      -0.15979700
C        3.10049509       4.51916848      -0.20393146
C        3.43095517       3.12477269      -0.20503175
C        4.80933447       2.80186270      -0.29622205
C        5.10524367       1.38226322      -0.20368349
C        6.49049048       1.00032212      -0.18751768
C       11.25904559       7.30974649      -0.16568775
C        2.37077627       2.20470813      -0.23633240
C        2.72525354       0.78918364      -0.22602801
C        4.09709861       0.37863399      -0.14472526
C        0.36671916       0.20606006      -0.28520843
C        6.18889227       7.51038151      -0.23653948
C        0.68328245       0.77298940       3.44475152
C        3.05624509       0.18423102       3.42581453
C        4.44651167       0.56582993       3.55941419
C        9.93033067       7.29121745       3.69300941
C        6.84466201       0.01616136       3.70701195
C       12.31186282       6.72757655       3.64845989
C        4.77827468       7.11931898       3.52799712
C        5.84464651       6.11755350       3.50133762
C        7.21843265       6.50900708       3.48962543
C        8.22682924       5.54023979       3.61967358
C        9.56175309       5.90503299       3.71850551
C       10.57584046       4.93540448       3.68022892
C       11.94417668       5.35983315       3.67188872
C        4.11673595       4.37016113       3.54127976
C        5.50356299       4.76441167       3.55080914
C        6.49652789       3.73449178       3.59491693
C        7.86485521       4.17672159       3.59406105
C        8.87094989       3.15264624       3.58433348
C       10.23856531       3.55497035       3.61523329
C        2.39484679       2.56476863       3.37618393
C        3.77942436       2.95903872       3.46649257
C        4.79176174       1.94178734       3.50426611
C        6.17026102       2.35409320       3.55846588
C        7.20225174       1.38861880       3.67269216
C        8.54754486       1.79573159       3.60786807
C        2.03325227       1.19780912       3.42010419
52
Lattice="8.887683617333732 0.0 0.0 4.443841808666866 7.696956204701445 0.0 0.0 0.0 30.000002767598083" Properties=species:S:1:pos:R:3 energy=-13216.314911627022 pbc="T T T"
C       12.61258914       6.85347415      -0.14732758
C        8.77150826       6.68966792       0.01729099
C       10.22605679       6.23463807      -0.01466823
C       10.58310259       4.89174818      -0.03273067
C        6.44310757       6.08060651      -0.05474191
C        7.77272549       5.68445934       0.05233779
C        8.14731113       4.33090957      -0.09934919
C        9.54876641       3.89774964       0.04493257
C        9.85978023       2.52973249       0.01604405
C        4.10113628       5.42898466      -0.25343941
C        5.47612049       5.04914550      -0.17990538
C        5.79728760       3.70552238      -0.10740766
C        7.17260776       3.37994875      -0.16334851
C        7.48832139       1.92133767      -0.13735026
C        8.80361591       1.50043919      -0.03367366
C        3.09859757       4.42068584      -0.19712171
C        3.36560492       3.07001123      -0.20540059
C        4.72288574       2.72962539      -0.23878273
C        5.07018620       1.39263870      -0.18293341
C        6.43424478       1.00929957      -0.09705884
C       11.27059425       7.31229459      -0.09822312
C        2.32270990       2.09329390      -0.13463063
C        2.65705123       0.75473498      -0.04311149
C        4.03282821       0.42246893      -0.09675755
C        0.31818974       0.11293846      -0.10622559
C        6.06706524       7.39116478       0.02377455
C        0.71794708       0.85235819       3.37968301
C        3.09727064       0.22346570       3.27770839
C        4.45620102       0.58100210       3.35383585
C        9.94480070       7.31448274       3.44889673
C        6.85904939       0.07410639       3.60504356
C       12.34933418       6.78544782       3.66070801
C        4.85473098       7.12291227       3.54766201
C        5.89466995       6.18649704       3.45827057
C        7.23877034       6.57006458       3.41423921
C        8.22257470       5.56769207       3.61129693
C        9.59663814       5.98463464       3.54530411
C       10.62887416       4.97848131       3.45466662
C       11.97969097       5.42626947       3.57063223
C        4.17441257       4.42596157       3.51956715
C        5.56288294       4.77778230       3.54700965
C        6.53906612       3.75319947       3.56963058
C        7.91487954       4.17161739       3.56762997
C        8.91375386       3.20653227       3.52522505
C       10.26216922       3.62540702       3.55275287
C        2.43872350       2.63633226       3.31460917
C        3.82620290       3.05255048       3.40540485
C        4.84582018       1.95769007       3.47771505
C        6.20130748       2.36738562       3.59041177
C        7.25554407       1.38597827       3.59288610
C        8.59015330       1.82806054       3.47076310
C        2.09019832       1.24621589       3.40825247
52
Lattice="8.887683617333732 0.0 0.0 4.443841808666866 7.696956204701445 0.0 0.0 0.0 30.000002767598083" Properties=species:S:1:pos:R:3 energy=-13217.908896805733 pbc="T T T"
C       13.24223620       7.57352228      -0.14730358
C        9.48019882       7.42338708      -0.15629703
C       10.84374635       6.99758083      -0.10628870
C       11.22462004       5.67516283      -0.10863327
C        7.09721798       6.85959243      -0.16928815
C        8.46006872       6.40474033      -0.11742941
C        8.82196986       5.06633428      -0.13331081
C       10.16706123       4.69510818      -0.10583009
C       10.50414618       3.28369603      -0.13739737
C        4.71037278       6.18802306      -0.14237891
C        6.09765042       5.79271577      -0.14050272
C        6.46548498       4.42746625      -0.10674730
C        7.83931823       4.07866022      -0.12491462
C        8.16877044       2.61769834      -0.13806839
C        9.51203450       2.26437915      -0.15006232
C        3.68132921       5.24084750      -0.14804126
C        4.02279224       3.82935625      -0.14004145
C        5.39781288       3.42136713      -0.14724225
C        5.75472626       2.08092936      -0.13372053
C        7.12975846       1.65847909      -0.10990243
C        7.45446553       0.32564295      -0.11851193
C        2.98333943       2.90090172      -0.16858425
C        3.32442384       1.49114889      -0.19105942
C        4.70515126       1.16131096      -0.15732711
C        0.94548689       0.89411341      -0.18185978
C        2.33400259       0.47682778      -0.15007387
C        0.07631143       0.10147602       3.50831268
C        6.89299768       7.21158380       3.52954802
C        8.24808769       7.52854793       3.55928177
C        9.28643843       6.60877489       3.56178365
C       10.66075428       7.00934456       3.55671411
C       11.73372966       6.02950766       3.52541969
C        4.19774185       6.40679605       3.53792200
C        5.21415779       5.42363871       3.52467401
C        6.58011833       5.83163316       3.54344036
C        7.57142034       4.82225360       3.56845030
C        8.97603786       5.19115646       3.58331140
C       10.00066068       4.20660465       3.54337903
C       11.33319909       4.62216696       3.54628264
C        3.52045414       3.68572595       3.50054218
C        4.87766742       4.02665927       3.49495182
C        5.85312447       3.01539374       3.52766739
C        7.22033017       3.41038018       3.53477042
C        8.26001940       2.46197902       3.53815663
C        9.63362424       2.84772848       3.58449968
C        1.81901377       1.90889669       3.52553079
C        3.18994430       2.31188026       3.55252801
C        4.13603200       1.26426055       3.53991461
C        5.50976659       1.62729221       3.52141046
C        6.55394854       0.66468053       3.53020926
C        7.91324598       1.09205457       3.53417495
C        1.43649142       0.54719690       3.55793528
64
Lattice="9.860000170089029 0.0 0.0 4.930000085044514 8.53900664730135 0.0 0.0 0.0 29.999997077512198" Properties=species:S:1:pos:R:3 energy=-16267.22937179137 pbc="T T T"
C        4.95425470       8.41569354      -0.32094301
C        1.28507946       0.57799025      -0.31583848
C        9.77237238       0.12387414       3.86098774
C        1.20735012       0.82327945       3.79222706
C        7.47828755       8.40326107      -0.32016998
C        3.72557937       0.59810564      -0.29823740
C        2.46380698       0.08151361       3.82623124
C        3.65619258       0.82870048       3.83388063
C        9.89638850       8.42757879      -0.39380446
C        6.18097183       0.57480251      -0.42055267
C        4.88435716       0.13446674       3.88219266
C        6.17219544       0.79822913       3.86470397
C       12.36966897       8.40007234      -0.34251373
C        8.67091767       0.58864694      -0.30006446
C        7.37875183       0.13838510       3.77136428
C        8.55654857       0.85846091       3.75403730
C        1.28341016       2.03777018      -0.38982595
C        2.49060449       2.73466513      -0.55163743
C       11.07234142       2.25372686       3.65815176
C        2.44694047       2.95255437       3.61812410
C        3.71005677       2.02945524      -0.45050242
C        4.90986005       2.75641728      -0.42398297
C        3.63708883       2.23281084       3.75776438
C        4.93039843       2.91854920       3.86828907
C        6.13830662       2.03594509      -0.31903510
C        7.40125926       2.74284104      -0.31044506
C        6.17660977       2.22020385       3.83631506
C        7.35616454       2.95459342       3.79865479
C        8.67609122       2.01549644      -0.34840606
C        9.86821749       2.75942556      -0.38681471
C        8.60975215       2.26245986       3.74321497
C        9.82348465       2.96949878       3.70340325
C        2.48865122       4.18277673      -0.61615733
C        3.69545904       4.85884441      -0.55366465
C       12.27226499       4.37979729       3.62644003
C        3.66104666       5.07863860       3.71333917
C        4.96493801       4.18458900      -0.43333616
C        6.19904324       4.90792256      -0.35278489
C        4.92063801       4.33633539       3.88976612
C        6.12937149       5.12444816       3.91310770
C        7.42759532       4.18057500      -0.25869781
C        8.71720544       4.87370934      -0.34697735
C        7.34067843       4.41881824       3.91123825
C        8.62783835       5.07606416       3.82902162
C        9.92441950       4.17630759      -0.50747449
C       11.16831768       4.89007596      -0.63084971
C        9.82661618       4.39283615       3.71908853
C       11.03538318       5.07791981       3.73313509
C        3.70817351       6.29651821      -0.54725565
C        4.97771065       6.99519290      -0.36403121
C       13.53381356       6.51574053       3.75323569
C        4.91493400       7.22302496       3.92857114
C        6.19313414       6.33514772      -0.22299376
C        7.42134506       6.99222997      -0.26766252
C        6.13036439       6.50656678       3.89862829
C        7.34189121       7.20738799       3.89889846
C        8.63114046       6.30808794      -0.34716173
C        9.87612127       6.97390220      -0.45694199
C        8.58999369       6.48556597       3.90465768
C        9.81589738       7.23412338       3.88182093
C       11.09261851       6.26060119      -0.55107344
C       12.34815840       7.01889535      -0.54970388
C       11.08470389       6.48527904       3.76123412
C       12.31722856       7.23559646       3.76781567
52
Lattice="8.887683617333732 0.0 0.0 4.443841808666866 7.696956204701445 0.0 0.0 0.0 30.000002767598083" Properties=species:S:1:pos:R:3 energy=-13217.255112695557 pbc="T T T"
C       12.47661114       6.78463726       0.07611768
C        8.75503938       6.56379965      -0.12119601
C       10.15338575       6.14890125      -0.02954088
C       10.45498841       4.83517452       0.00395769
C        6.34539994       6.02401241      -0.02216855
C        7.72533813       5.54974784      -0.08443833
C        8.04689897       4.21534124      -0.08834180
C        9.46861728       3.85632415      -0.03714874
C        9.79859120       2.45564743      -0.03320172
C        3.96349895       5.45014801       0.16283214
C        5.32815744       5.01830879       0.14107776
C        5.67511661       3.61039394       0.17623121
C        7.05315907       3.24398497       0.02715276
C        7.42496287       1.76439895       0.03031767
C        8.77020355       1.46966203       0.00379860
C        2.96580403       4.42191056       0.09380150
C        3.28885533       3.06797506       0.19174911
C        4.65553399       2.61117478       0.18142162
C        5.03607705       1.23561199       0.16884377
C        6.38257712       0.83810857       0.10406767
C       11.16537829       7.16086002       0.00072257
C        2.27644418       2.05128449       0.04201564
C        2.65837549       0.71091159      -0.05360340
C        4.00617138       0.24848275      -0.01267739
C        0.26717443       0.09657713       0.00085500
C        6.05758563       7.38291968      -0.05384781
C        0.77851842       0.87673622       3.42509907
C        3.21396682       0.32638507       3.55574447
C        4.56307897       0.71609311       3.47694982
C       10.05458315       7.41484246       3.38159742
C        6.95640863       0.14497056       3.27252599
C       12.43319036       6.79409731       3.27095375
C        4.89554322       7.19855268       3.36454906
C        5.91548757       6.23113632       3.40077171
C        7.30865242       6.62760700       3.44993659
C        8.32134353       5.67357371       3.34888363
C        9.73671603       6.06894498       3.31531041
C       10.74537569       5.01508790       3.30910680
C        3.15546097       5.44708531       3.29791543
C        4.23009124       4.48987290       3.31353020
C        5.57358105       4.85484563       3.22027974
C        6.57681122       3.88883796       3.28952635
C        7.97420127       4.29835132       3.22949093
C        9.01172546       3.29645963       3.29375155
C       10.37811616       3.68275746       3.41337177
C        2.55501173       2.69014896       3.50673334
C        3.88854734       3.12859262       3.48074308
C        4.90823839       2.06305267       3.47010186
C        6.25778337       2.51032002       3.30271211
C        7.27632880       1.52180963       3.28224289
C        8.66741749       1.91227045       3.29121056
C        2.15584986       1.30091691       3.56816145
52
Lattice="8.887683617333732 0.0 0.0 4.443841808666866 7.696956204701445 0.0 0.0 0.0 30.000002767598083" Properties=species:S:1:pos:R:3 energy=-13218.211729983805 pbc="T T T"
C       12.44185763       6.67730870       0.01621469
C        8.66066463       6.48842498       0.02642397
C       10.04304249       6.10162411      -0.01216813
C       10.39215071       4.70770558      -0.04408380
C        6.29803569       5.87488952       0.02624089
C        7.63646130       5.49427980       0.02931514
C        8.01696081       4.14583511       0.06018384
C        9.34354713       3.72921961      -0.03803040
C        9.69409781       2.33290408      -0.06807699
C        3.90150824       5.26107143      -0.06190716
C        5.28681727       4.90857701      -0.06547023
C        5.61591308       3.54161483      -0.22156551
C        6.96980059       3.16454952      -0.03776821
C        7.29342426       1.76019152      -0.02933558
C        8.65623856       1.34167850       0.01397322
C        2.87295173       4.30140068      -0.13571848
C        3.21645803       2.89853048      -0.22503882
C        4.56974829       2.53810203      -0.21496374
C        4.89404831       1.18274716      -0.15331254
C        6.30305012       0.77951918      -0.09885770
C       11.08144390       7.11699308      -0.02188325
C        2.17544010       1.95323023      -0.09187199
C        2.47761245       0.53957572      -0.05369050
C        3.86409998       0.25009408      -0.03926134
C        4.54569911       7.65801304       0.06532536
C        5.93496048       7.25415137       0.00020264
C        0.89821775       1.03999941       3.47722356
C        3.28335207       0.42762290       3.37144679
C        4.63331478       0.79852815       3.36374473
C       10.10632102       7.54016236       3.40570526
C        7.04194281       0.21287602       3.42538170
C       12.54336742       6.95624065       3.39725752
C        5.03250331       7.35975749       3.45739780
C        6.04107765       6.35105695       3.49251749
C        7.39564418       6.73761697       3.49278323
C        8.38995823       5.72336518       3.43984107
C        9.76507841       6.13408459       3.45359299
C       10.79976387       5.16201197       3.49349424
C        3.29344493       5.55302384       3.44954465
C        4.31116647       4.56739750       3.43628067
C        5.70521297       4.94469033       3.53736118
C        6.73322112       3.95621194       3.53297511
C        8.06978742       4.33911290       3.60725393
C        9.10308641       3.36732913       3.55097267
C       10.46273936       3.76674163       3.44668015
C        2.57732160       2.80025048       3.41135249
C        3.97864001       3.18148589       3.38029715
C        5.00987438       2.19284662       3.32625737
C        6.38749112       2.57085758       3.46705516
C        7.41131494       1.59634530       3.44842480
C        8.75333206       1.98430957       3.56223603
C        2.26261050       1.42045181       3.34804374
52
Lattice="8.887683617333732 0.0 0.0 4.443841808666866 7.696956204701445 0.0 0.0 0.0 30.000002767598083" Properties=species:S:1:pos:R:3 energy=-13218.369947990212 pbc="T T T"
C       12.45739419       6.63039418       0.01672662
C        8.63503344       6.53246523      -0.02439047
C       10.03061840       6.10975189      -0.04926976
C       10.38263289       4.70153397      -0.07774946
C        6.26189215       5.88999503      -0.03561650
C        7.63368301       5.51556403      -0.01066700
C        7.95988410       4.12171749      -0.02622755
C        9.35020134       3.70963560      -0.07054688
C        9.69824658       2.33138606      -0.09277142
C        3.92482242       5.27177398      -0.07099748
C        5.27288938       4.85336050      -0.04976747
C        5.61823455       3.50378351      -0.12686368
C        6.97523808       3.14886009      -0.05167299
C        7.30493381       1.79405893      -0.02559297
C        8.67214929       1.35708352      -0.03045987
C        2.85819817       4.28079903      -0.08784409
C        3.20373887       2.91444921      -0.18922767
C        4.59739965       2.55762916      -0.18953607
C        4.91562405       1.17213171      -0.16047335
C        6.24928764       0.77551972      -0.08244393
C       11.08714179       7.06653059      -0.05602796
C        2.16530014       1.93121366      -0.10832042
C        2.45838928       0.57604988      -0.05088732
C        3.82493285       0.18110788      -0.08272834
C        4.56927813       7.64573382       0.02167973
C        5.88992126       7.23709857      -0.00791182
C        0.92020232       1.04116992       3.50331958
C        3.30227840       0.40972310       3.43937536
C        4.67268989       0.81552585       3.40120898
C       10.10235534       7.49364955       3.44143641
C        7.03506996       0.20006798       3.40665535
C       12.55768103       6.95883408       3.42323355
C        5.02738578       7.36443241       3.46876337
C        6.03658404       6.35712279       3.48045957
C        7.40237749       6.73871104       3.50277387
C        8.41609335       5.72443081       3.50418879
C        9.75297427       6.14116008       3.44772001
C       10.82314115       5.21134750       3.42383347
C        3.32518996       5.59511946       3.44418182
C        4.35914218       4.57825025       3.49196823
C        5.71153567       4.97628249       3.52647199
C        6.71919813       3.95238046       3.50717772
C        8.09236392       4.35035315       3.53682081
C        9.09129423       3.37719446       3.56998165
C       10.43498134       3.83323484       3.49558107
C        2.59978788       2.80870444       3.42577898
C        3.98054019       3.18819164       3.38999183
C        5.01932643       2.19590132       3.38350382
C        6.38749823       2.57630485       3.45723783
C        7.38185582       1.55923211       3.44252782
C        8.75397464       2.01190494       3.51989777
C        2.27323217       1.41775085       3.48549444
52
Lattice="8.887683617333732 0.0 0.0 4.443841808666866 7.696956204701445 0.0 0.0 0.0 30.000002767598083" Properties=species:S:1:pos:R:3 energy=-13217.696616718491 pbc="T T T"
C       12.40434716       6.64798468      -0.02943423
C        8.67958917       6.48104021      -0.11543857
C       10.00513563       6.08208187      -0.10649934
C       10.33452208       4.72405092      -0.10815511
C        6.23751679       5.85881437      -0.09180000
C        7.63850991       5.53241596      -0.08036510
C        7.99137406       4.12690168      -0.15511319
C        9.34893040       3.73361812      -0.11396410
C        9.67107694       2.35151044      -0.09948695
C        3.86119016       5.26112742      -0.04523653
C        5.22628948       4.88352174      -0.05960170
C        5.59434090       3.48389110       0.02971775
C        6.96073960       3.08435150      -0.08170803
C        7.31972914       1.69393295      -0.05460148
C        8.66679891       1.34166517      -0.07602347
C        2.85679303       4.32078561      -0.06422507
C        3.19960876       2.95130821      -0.09139383
C        4.55801388       2.50558644      -0.14474037
C        4.87407324       1.11121553      -0.14031342
C        6.29296882       0.74103640      -0.05086955
C       11.04285269       7.01632851      -0.07736018
C        2.13852510       1.94130385      -0.14884648
C        2.51587748       0.54834964      -0.06498941
C        3.86301746       0.14021832      -0.14838077
C        4.53262355       7.67126991      -0.06306256
C        5.91601283       7.30459430      -0.02044789
C        0.91857943       1.02329856       3.53413762
C        3.31840510       0.44477791       3.55485125
C        4.67761633       0.84102995       3.46420932
C       10.16938358       7.51074235       3.45402582
C        7.06397538       0.19710216       3.39769923
C       12.52498414       6.94161242       3.47966501
C        5.00055565       7.32497820       3.48354181
C        6.04090434       6.36159330       3.50089679
C        7.41402124       6.72638294       3.48978452
C        8.43120330       5.76879635       3.59462897
C        9.80907244       6.14440675       3.44895362
C       10.85098093       5.18286959       3.36424955
C        3.34217965       5.56603896       3.43059255
C        4.33858675       4.58831111       3.52367948
C        5.70193431       4.97992822       3.47582642
C        6.70272126       3.98967762       3.48335428
C        8.05333276       4.39757786       3.44047565
C        9.10990681       3.41873194       3.54966796
C       10.52973738       3.81964468       3.54421981
C        2.64852794       2.84683527       3.47538736
C        3.99862841       3.22874615       3.44474085
C        4.99086629       2.21308655       3.48665872
C        6.34284384       2.59500098       3.42539770
C        7.38178739       1.60688609       3.45758267
C        8.77081502       1.98850189       3.45311394
C        2.31381333       1.44114679       3.64499370
52
Lattice="8.887683617333732 0.0 0.0 4.443841808666866 7.696956204701445 0.0 0.0 0.0 30.000002767598083" Properties=species:S:1:pos:R:3 energy=-13219.505060936008 pbc="T T T"
C        0.00000000       0.00000000       0.00000000
C        9.57135179       7.49960163       0.00000000
C       10.93868726       7.10488627       0.00000000
C       11.28052179       5.72338029       0.00000000
C        7.17851362       6.90752815       0.00000000
C        8.54584997       6.51281190       0.00000000
C        8.88768362       5.13130680       0.00000000
C       10.25501997       4.73659055       0.00000000
C       10.59685361       3.35508546       0.00000000
C        4.78567545       6.31545377       0.00000000
C        6.15301180       5.92073841       0.00000000
C        6.49484545       4.53923243       0.00000000
C        7.86218180       4.14451707       0.00000000
C        8.20401544       2.76301108       0.00000000
C        9.57135179       2.36829572       0.00000000
C        3.76017363       5.32866404       0.00000000
C        4.10200817       3.94715894       0.00000000
C        5.46934363       3.55244269       0.00000000
C        5.81117816       2.17093760       0.00000000
C        7.17851362       1.77622135       0.00000000
C        7.52034727       0.39471625       0.00000000
C        3.07650546       2.96036921       0.00000000
C        3.41833999       1.57886322       0.00000000
C        4.78567545       1.18414786       0.00000000
C        1.02550182       0.98678974       0.00000000
C        2.39283817       0.59207349       0.00000000
C        0.00000000       0.00000000       3.39999937
C        6.83667998       7.10488627       3.39999937
C        8.20401544       7.49960163       3.39999937
C        9.22951726       6.51281190       3.39999937
C       10.59685361       6.90752815       3.39999937
C       11.62235543       5.92073841       3.39999937
C        4.10200817       6.31545377       3.39999937
C        5.12750998       5.32866404       3.39999937
C        6.49484545       5.72338029       3.39999937
C        7.52034727       4.73659055       3.39999937
C        8.88768362       5.13130680       3.39999937
C        9.91318544       4.14451707       3.39999937
C       11.28052179       4.53923243       3.39999937
C        3.41833999       3.55244269       3.39999937
C        4.78567545       3.94715894       3.39999937
C        5.81117816       2.96036921       3.39999937
C        7.17851362       3.35508546       3.39999937
C        8.20401544       2.36829572       3.39999937
C        9.57135179       2.76301108       3.39999937
C        1.70916999       1.77622135       3.39999937
C        3.07650635       2.17093760       3.39999937
C        4.10200817       1.18414786       3.39999937
C        5.46934363       1.57886322       3.39999937
C        6.49484545       0.59207349       3.39999937
C        7.86218180       0.98678974       3.39999937
C        1.36733635       0.39471625       3.39999937
52
Lattice="8.887683617333732 0.0 0.0 4.443841808666866 7.696956204701445 0.0 0.0 0.0 30.000002767598083" Properties=species:S:1:pos:R:3 energy=-13216.089551027555 pbc="T T T"
C       13.30444021       7.68804008      -0.05794859
C        9.58107048       7.52766894      -0.01473667
C       10.89944191       7.13689704       0.05485034
C       11.22128004       5.77124935       0.04812503
C        7.19940323       6.89930971      -0.04580001
C        8.59822865       6.54731566      -0.04941374
C        8.89677661       5.15218131      -0.00581877
C       10.21058422       4.71661460       0.03598445
C       10.56060431       3.34484862      -0.01981687
C        4.77392682       6.24605341       0.00920853
C        6.15723345       5.87445758       0.03170326
C        6.55918072       4.51341460      -0.00741411
C        7.91465646       4.10782871      -0.06508540
C        8.24948483       2.70844604      -0.01057723
C        9.58880365       2.36214456      -0.03279378
C        3.68329606       5.36408235       0.06739708
C        4.09174289       3.92583917      -0.16980186
C        5.47310578       3.48745328       0.06585951
C        5.77920116       2.11139456       0.02455134
C        7.21872861       1.71036805       0.07677092
C        7.49229063       0.35758173       0.01870324
C        3.03968645       2.98826676      -0.02892763
C        3.39250438       1.56508465      -0.03074161
C        4.74361093       1.18586229      -0.07898751
C        0.96257969       1.00274668      -0.07950833
C        2.37652483       0.59690039      -0.11901408
C        0.04690564       0.05342653       3.42397834
C        6.85626132       7.15741959       3.38890220
C        8.22177925       7.54872831       3.43388633
C        9.20979194       6.51924303       3.43891409
C       10.59074066       6.86337325       3.42768717
C       11.67883311       5.94573947       3.37875691
C        4.11906008       6.40514472       3.41780851
C        5.09495173       5.37247143       3.34266936
C        6.48057272       5.77465689       3.51779050
C        7.51543327       4.68065947       3.45938153
C        8.89781202       5.10931867       3.46390981
C        9.99043185       4.18259368       3.45262245
C       11.37416509       4.54405400       3.39722285
C        3.42641090       3.51615161       3.35173391
C        4.76858444       3.96186628       3.31126384
C        5.78908338       2.93224413       3.31618940
C        7.13893321       3.30447188       3.50305028
C        8.22735539       2.34184864       3.37486766
C        9.64220530       2.79669096       3.42145512
C        1.73673426       1.80623861       3.54561606
C        3.06116532       2.18800284       3.48194825
C        4.07906905       1.25940077       3.42256786
C        5.44035467       1.57826597       3.46230736
C        6.46091849       0.53229315       3.32762340
C        7.85520586       0.95340671       3.36180188
C        1.39235785       0.46684958       3.35927422
52
Lattice="8.887683617333732 0.0 0.0 4.443841808666866 7.696956204701445 0.0 0.0 0.0 30.000002767598083" Properties=species:S:1:pos:R:3 energy=-13216.325927883667 pbc="T T T"
C        4.34420377       7.51694595      -0.31522214
C        9.42962523       7.29689846      -0.25553246
C       10.77816769       6.89308655      -0.49086499
C       11.12713103       5.50217295      -0.44015631
C        7.04637243       6.72668245      -0.04124952
C        8.36757726       6.29330478      -0.28152893
C        8.76044309       4.94357848      -0.30547946
C       10.07153552       4.54433396      -0.29878970
C       10.48916866       3.13755762      -0.14037919
C        4.64319522       6.14195197      -0.35191672
C        6.02735418       5.71004343      -0.19206906
C        6.34375838       4.37247282      -0.30870658
C        7.68973941       3.96082642      -0.28320071
C        8.01160953       2.57122820      -0.30982909
C        9.41597820       2.17062386      -0.19056171
C        3.57414464       5.18186617      -0.37406749
C        3.96489787       3.71935695      -0.31028948
C        5.29299243       3.36154769      -0.30691571
C        5.64715774       1.97167751      -0.30995352
C        7.04212945       1.56281829      -0.38790295
C        7.41353864       0.24079579      -0.44411044
C        2.97965370       2.80919860      -0.14629749
C        3.24754271       1.35636628      -0.06502140
C        4.64010408       1.04278481      -0.18440077
C        0.83962214       0.78213838      -0.09145249
C        2.28593000       0.37549663      -0.03296353
C        0.15279084       0.17577261       3.78835292
C        7.01443898       7.28833429       3.53810686
C        8.38089812       7.69259235       3.46682053
C        9.36066303       6.73309047       3.49813539
C       10.71326183       7.04954000       3.75377628
C       11.79087125       6.10778949       3.88921836
C        4.24112885       6.54594874       3.88685868
C        5.25353645       5.51563424       3.76979811
C        6.64141935       5.93260436       3.60708950
C        7.65858452       4.92373229       3.58360558
C        9.02798281       5.31154992       3.49414838
C       10.08344146       4.37797607       3.53101004
C       11.45505812       4.73808635       3.62138268
C        3.54940666       3.73123978       3.74255824
C        4.92129084       4.16469300       3.80923987
C        5.97140532       3.17269775       3.71339331
C        7.35359566       3.53938224       3.67293302
C        8.37740971       2.53548994       3.64124665
C        9.70828433       2.97570313       3.48464744
C        1.80470815       1.94481537       3.56971857
C        3.21009445       2.32790653       3.62095340
C        4.26143099       1.41040073       3.67053246
C        5.63633698       1.79087625       3.79060328
C        6.63591698       0.75397597       3.82433560
C        7.99088079       1.19859035       3.73522057
C        1.50740980       0.56243039       3.55517210
64
Lattice="9.860000170089029 0.0 0.0 4.930000085044514 8.53900664730135 0.0 0.0 0.0 29.999997077512198" Properties=species:S:1:pos:R:3 energy=-16267.249887406064 pbc="T T T"
C        4.95917977       8.49658301      -0.08866309
C        1.24010898       0.68180126      -0.11450714
C        9.83497450       0.01917474       3.46938896
C        1.21347219       0.71096123       3.46394624
C        7.41800844       8.52508531      -0.06476443
C        3.69930839       0.66969417      -0.06232506
C        7.34584605       8.49872953       3.43791683
C        3.72123308       0.70086952       3.44783401
C        9.89298581       8.51606144      -0.04186950
C        6.17335991       0.76656374      -0.05982457
C        4.95948149       0.01394500       3.45295333
C        6.15909052       0.68423570       3.41557012
C        7.38184393       0.02620788      -0.05469736
C        8.62719054       0.71653804      -0.05066167
C        7.39322533       0.00372314       3.43450625
C        8.61950369       0.74804765       3.49546274
C        1.22723577       2.11430942      -0.10295714
C        2.42898245       2.87304432       0.00754980
C        1.26476293       2.16672419       3.46998943
C        2.43952575       2.88208101       3.52465426
C        3.68388932       2.15625780       0.00773024
C        4.89794227       2.85105356      -0.00853186
C        3.69622221       2.11820905       3.42348277
C        4.95905356       2.75679294       3.36308435
C        6.15082981       2.10545415      -0.09849943
C        7.34627398       2.82929155      -0.12199778
C        6.18394068       2.09563063       3.39371642
C        7.37504645       2.88901259       3.45972222
C        8.60118775       2.13645793      -0.03445873
C        9.87834864       2.81639171      -0.04147313
C        8.61737097       2.21565740       3.46028719
C        9.87024274       2.89005183       3.45173069
C        2.48266916       4.21668034       0.08743947
C        3.70416838       4.99607293       0.01951787
C        2.46643369       4.22303709       3.55581679
C        3.69414865       4.96916696       3.46713694
C        4.90808623       4.31473114       0.02332876
C        6.17215896       4.97771263      -0.01900909
C        4.88944097       4.23204025       3.38315931
C        6.15555965       5.03624652       3.41633131
C        7.43388304       4.26473404      -0.12312084
C        8.67012986       4.99210625      -0.11186072
C        7.41631843       4.31373627       3.46147237
C        8.60889630       4.99402698       3.42085705
C        9.87514316       4.25805882       0.02522484
C       11.12049668       4.95545959       0.14553163
C        9.84478718       4.29721584       3.45208466
C       11.12437166       4.95124444       3.46750274
C       13.55049865       6.39842526       0.01476634
C        4.92218012       7.13257425      -0.09702832
C        3.73087814       6.39799635       3.40075547
C        4.90318384       7.13238593       3.38516089
C        6.15531019       6.42658148      -0.10371833
C        7.43103941       7.08032414      -0.08696027
C        6.13810351       6.42840558       3.38671877
C        7.37166841       7.10934902       3.38496468
C        8.61015937       6.34950684      -0.07146824
C        9.84539258       7.10313328      -0.00677776
C        8.60941888       6.39684963       3.35284179
C        9.85092503       7.13153994       3.39583139
C       11.08052128       6.42077887       0.10132728
C       12.33352615       7.11706940       0.04462636
C       11.12173115       6.44420327       3.38818693
C       12.35911384       7.12695997       3.40506725
52
Lattice="8.887683617333732 0.0 0.0 4.443841808666866 7.696956204701445 0.0 0.0 0.0 30.000002767598083" Properties=species:S:1:pos:R:3 energy=-13213.478357788483 pbc="T T T"
C        4.26438259       7.27942794      -0.35485321
C        9.31377517       7.20585214      -0.38415057
C       10.64291225       6.80063864      -0.71809195
C       11.08856293       5.41931841      -0.70197858
C        6.86588224       6.54773783      -0.12563896
C        8.25928439       6.22489450      -0.33590911
C        8.62071360       4.85722486      -0.49013442
C        9.99024965       4.43766042      -0.54501676
C       10.33891970       3.03428807      -0.24008566
C        4.61798264       5.90131882      -0.48347488
C        5.93650872       5.49756380      -0.39108208
C        6.26632444       4.24697962      -0.40902898
C        7.58575884       3.84027388      -0.42741937
C        7.98992092       2.45135557      -0.49853950
C        9.30549718       2.00906444      -0.28802227
C        3.55535608       5.01660680      -0.56687957
C        3.91263296       3.62381079      -0.30201149
C        5.22570911       3.28530114      -0.46864400
C        5.53039935       1.89147327      -0.49601096
C        6.96846389       1.44282567      -0.56914326
C        7.33329974       0.09860618      -0.56584682
C        2.84865013       2.69909353      -0.15894822
C        3.10604101       1.25969495      -0.02766736
C        4.47512201       0.94111771      -0.27522045
C        0.71209099       0.63335233      -0.07464054
C        2.14865795       0.19731813       0.04524809
C        0.28157337       0.36198469       3.88805674
C        7.10201644       7.37534471       3.70795583
C        4.03074405       0.04061316       3.57974477
C        9.42934172       6.79421818       3.57174230
C       10.80083217       7.14654462       3.76854494
C       11.90476602       6.29820011       3.93329949
C        4.35053535       6.68457083       3.97740817
C        5.42637523       5.67489975       3.98973450
C        6.76338770       5.98590735       3.65794039
C        7.73525590       5.02228248       3.60319936
C        9.06351844       5.37813022       3.50675289
C       10.16782557       4.57853465       3.55786507
C       11.57171430       4.89175529       3.75460283
C        3.70033197       3.90062570       4.00432363
C        5.10916936       4.27637741       4.13838101
C        6.08627952       3.27702315       3.98474140
C        7.37879402       3.65292329       3.69916680
C        8.40617025       2.70571663       3.78033801
C        9.78147174       3.14886364       3.61812001
C        1.93850156       2.14176466       3.58312742
C        3.34103047       2.50025827       3.66772217
C        4.36195069       1.53069020       3.75122551
C        5.71279595       1.88174126       3.89914768
C        6.69178852       0.85622611       3.96896310
C        8.06335096       1.30970861       3.89788651
C        1.62935771       0.73194430       3.76319633
52
Lattice="8.887683617333732 0.0 0.0 4.443841808666866 7.696956204701445 0.0 0.0 0.0 30.000002767598083" Properties=species:S:1:pos:R:3 energy=-13214.954767203446 pbc="T T T"
C       13.04783679       7.39108568      -0.43860541
C        9.36491845       7.15157328      -0.49070501
C       10.61759480       6.75141954      -0.51673348
C       11.01443076       5.35448898      -0.53160702
C        6.92389571       6.58577712      -0.23598222
C        8.33493013       6.15701304      -0.39100031
C        8.67101611       4.75472587      -0.47330559
C        9.97541877       4.39214038      -0.46598836
C       10.30334053       2.96677812      -0.34154302
C        4.47824692       6.05054570      -0.42610844
C        5.86798734       5.58661039      -0.30392056
C        6.22608989       4.22040900      -0.47534532
C        7.57338630       3.71307424      -0.52102001
C        7.95624371       2.39375893      -0.44393891
C        9.33631167       2.03984693      -0.28360954
C        3.44417115       4.99733919      -0.54681385
C        3.79754545       3.55441309      -0.45212891
C        5.19002062       3.22866704      -0.39920809
C        5.52488276       1.76096208      -0.39393236
C        6.90959720       1.40581024      -0.49804446
C        7.19236686       0.06838984      -0.55902019
C        2.77828901       2.63177377      -0.25652699
C        3.18586840       1.22253110      -0.17466076
C        4.55907685       0.74830119      -0.33888293
C        0.74825586       0.68462182      -0.25648255
C        2.20444239       0.30207281      -0.13412759
C        0.29371484       0.30504219       3.89158248
C        7.04081319       7.50270877       3.65217672
C        4.02604602       0.17302365       3.66584243
C        9.54903304       6.92597898       3.66126616
C       10.90753237       7.27063002       3.81251409
C       11.86312278       6.26731630       3.84828968
C        4.31670972       6.66191257       3.97769791
C        5.39749470       5.66239300       3.94157303
C        6.76401072       6.08479972       3.84130041
C        7.81041637       5.14098638       3.70270587
C        9.19860234       5.45049729       3.61180531
C       10.17755492       4.46959920       3.68287745
C       11.51797492       4.84684849       3.80939629
C        3.65912511       3.88544642       3.81049836
C        5.02913666       4.29335999       3.87654718
C        6.04225882       3.30262502       3.93025723
C        7.45858231       3.72416874       3.84928333
C        8.49870703       2.67994057       3.71817488
C        9.86941626       3.03340197       3.69178735
C        2.01906486       2.09518965       3.79115165
C        3.34085716       2.48893358       3.87735863
C        4.34539649       1.58161751       3.81639356
C        5.71839430       1.91474478       3.90350264
C        6.79619303       1.00599513       3.82285136
C        8.14623394       1.34358846       3.84361654
C        1.60710295       0.76476829       3.71878813
52
Lattice="8.887683617333732 0.0 0.0 4.443841808666866 7.696956204701445 0.0 0.0 0.0 30.000002767598083" Properties=species:S:1:pos:R:3 energy=-13213.13161523295 pbc="T T T"
C       12.86078126       7.18016051      -0.39484779
C        9.10090004       6.95411828      -0.44014298
C       10.43284563       6.51504004      -0.50451647
C       10.78364517       5.11332257      -0.60051767
C        6.81734571       6.33089257      -0.38729770
C        8.10990287       5.94989446      -0.22054698
C        8.50233499       4.61434491      -0.44617327
C        9.79029188       4.18156360      -0.56024136
C       10.14593076       2.79060201      -0.44177831
C        4.30107539       5.76914742      -0.37852467
C        5.73779700       5.36112008      -0.45844183
C        6.05834553       3.88755547      -0.37921702
C        7.46035718       3.42994730      -0.37116211
C        7.72382456       2.15253209      -0.39668487
C        9.23037492       1.73414261      -0.24447174
C        3.26140394       4.70875077      -0.48098366
C        3.60046996       3.35659459      -0.30439072
C        4.96252702       2.95156418      -0.50786268
C        5.35264301       1.52436839      -0.54620859
C        6.73543149       1.15612055      -0.51474886
C       11.43886120       7.50023177      -0.49382370
C        2.58136283       2.40239243      -0.24809791
C        2.97660789       1.01281021      -0.14847942
C        4.36227776       0.57413992      -0.35718623
C        0.58745367       0.39215393      -0.32476840
C        1.94173223       0.07008205      -0.17676714
C        0.49823288       0.59875880       3.82537368
C        2.79790057       0.06008519       3.77555288
C        4.17216843       0.44698738       3.73412294
C        9.68886119       7.06639638       3.76890045
C       11.04768670       7.47565199       3.79951319
C       12.06494519       6.49486589       3.87287391
C        4.57542663       6.94733431       3.81400011
C        5.58734718       5.88304219       3.92673949
C        6.89371847       6.36286957       3.74063584
C        7.95503143       5.29527123       3.66755242
C        9.37454915       5.67351238       3.61602251
C       10.40736909       4.68230014       3.61528217
C       11.78132321       5.11121886       3.93679235
C        3.88373377       4.12555875       3.94468461
C        5.20950686       4.55780413       3.93345147
C        6.23320804       3.52007286       3.97386465
C        7.62490020       3.93069629       3.74854499
C        8.69473912       2.89080886       3.81420719
C       10.05449783       3.30880729       3.66644590
C        2.15460648       2.38523831       3.62215146
C        3.51054882       2.76164504       3.72517127
C        4.49998353       1.78549476       3.71485356
C        5.88229118       2.15575477       3.78646429
C        6.97996188       1.22759797       3.92051278
C        8.32310596       1.58438781       3.96880134
C        1.86749430       1.04389488       3.81536259
64
Lattice="9.860000170089029 0.0 0.0 4.930000085044514 8.53900664730135 0.0 0.0 0.0 29.999997077512198" Properties=species:S:1:pos:R:3 energy=-16267.726417514139 pbc="T T T"
C        4.92006219       8.39110369      -0.49188879
C        1.25627051       0.57105374      -0.47822283
C        9.80550198       0.13357046       3.86378404
C        1.21877194       0.83090221       3.89661784
C        7.43010962       8.41315755      -0.51086140
C        3.71507946       0.60736122      -0.52952145
C        2.45307634       0.13682131       3.84188596
C        3.68607627       0.83303690       3.82158915
C        9.86631747       8.40802246      -0.42147754
C        6.21510518       0.58575697      -0.39942072
C        4.91795807       0.16839303       3.78015152
C        6.14025989       0.87326078       3.80593443
C       12.36627023       8.43803926      -0.45795855
C        8.64756229       0.59044935      -0.52296455
C        7.34553546       0.11003169       3.79669955
C        8.57235908       0.82026820       3.87860855
C        1.24625867       2.01862304      -0.49417926
C        2.53575146       2.75634136      -0.32420962
C       11.08613162       2.30241554       3.89750820
C        2.43291560       2.98390819       3.83994058
C        3.73332835       2.00335089      -0.43749314
C        4.99739910       2.68755898      -0.44063946
C        3.67256511       2.25649259       3.84398023
C        4.85339577       3.00273980       3.85616521
C        6.20486261       1.96306293      -0.46674480
C        7.46124355       2.69769900      -0.50937550
C        6.09142232       2.29057763       3.89805838
C        7.36670489       2.93891799       3.82481140
C        8.67077273       2.00613930      -0.50302368
C        9.87293353       2.69654736      -0.47294970
C        8.60027176       2.21390035       3.87500274
C        9.83346592       3.00035664       3.88666220
C        2.48445974       4.12699674      -0.31994320
C        3.73437646       4.83183688      -0.35275334
C       12.26959983       4.38096964       3.76449186
C        3.65822275       5.12321961       3.79300994
C        4.98290490       4.10992612      -0.39682261
C        6.16766477       4.83665546      -0.45368129
C        4.90706277       4.45081394       3.83308887
C        6.14698145       5.14077435       3.80693325
C        7.41582445       4.13361280      -0.49343483
C        8.64153487       4.87823114      -0.44511097
C        7.37579186       4.38098837       3.80824956
C        8.61256521       5.08215665       3.81965955
C        9.87373811       4.13250355      -0.39966229
C       11.10268261       4.81805852      -0.32135022
C        9.83562428       4.39956264       3.89015658
C       11.06731676       5.11034343       3.78970980
C        3.73756322       6.29124706      -0.30547168
C        4.98599897       7.00736211      -0.46082584
C       13.54263826       6.54667431       3.80875636
C        4.91211700       7.22473469       3.82149450
C        6.21095609       6.25230499      -0.52414775
C        7.40796504       6.99607339      -0.49738475
C        6.16134353       6.54531954       3.87117312
C        7.33527318       7.24517052       3.83803958
C        8.64282456       6.27466352      -0.40756607
C        9.90586297       6.99413393      -0.37328777
C        8.56529637       6.52800637       3.80616318
C        9.82176112       7.25811966       3.82973943
C       11.15077772       6.26095319      -0.35064034
C       12.33295427       6.98072926      -0.34052497
C       11.06432820       6.52844514       3.79876720
C       12.29025653       7.26254483       3.81671042
52
Lattice="8.887683617333732 0.0 0.0 4.443841808666866 7.696956204701445 0.0 0.0 0.0 30.000002767598083" Properties=species:S:1:pos:R:3 energy=-13215.839520451418 pbc="T T T"
C       12.77870795       6.89303500      -0.22602979
C        9.03610349       6.78327122      -0.25858627
C       10.39487034       6.40003786      -0.26741529
C       10.72792206       5.01409692      -0.21686126
C        6.57822614       6.18961128      -0.39507442
C        7.97568818       5.72411263      -0.29144403
C        8.32304997       4.39025974      -0.26696913
C        9.68473731       4.02233453      -0.19306182
C       10.03078638       2.57972305      -0.25107084
C        4.17537244       5.60754533      -0.24055404
C        5.53479520       5.18152044      -0.32202922
C        5.92459034       3.79854887      -0.24682875
C        7.28648654       3.36557914      -0.22154507
C        7.62820908       2.01808810      -0.28256435
C        9.03630613       1.65224794      -0.31886787
C        3.12616450       4.63552693      -0.12616422
C        3.53765270       3.24062720      -0.32222475
C        4.94332518       2.82345355      -0.24714337
C        5.25660270       1.38287024      -0.28913057
C        6.64257830       1.00268625      -0.20837530
C       11.36953994       7.31597498      -0.19862817
C        2.51934546       2.28275799      -0.38474605
C        2.84642466       0.81801440      -0.32090048
C        4.22868787       0.45381668      -0.24423799
C        0.41932269       0.27446945      -0.38725593
C        6.27142063       7.57577264      -0.36744350
C        0.55722043       0.68431875       3.58701045
C        2.96831035       0.12861634       3.70694263
C        4.34348209       0.56943656       3.75259955
C        9.81253153       7.25139885       3.69163893
C       11.15193923       7.62644577       3.61917409
C       12.19227637       6.61685912       3.55452419
C        4.64969300       7.08326521       3.57668652
C        5.67906541       6.02648585       3.59961141
C        7.07140726       6.43996489       3.64930067
C        8.06969677       5.44873931       3.71797669
C        9.49081338       5.85964981       3.81468269
C       10.49459548       4.87773586       3.67830918
C       11.85963703       5.26676221       3.66494921
C        3.99983180       4.26579218       3.67510784
C        5.34238040       4.68555836       3.73403140
C        6.38474571       3.69084259       3.56207072
C        7.71678729       4.13767088       3.61314202
C        8.77408836       3.10430347       3.70304094
C       10.15907031       3.53947556       3.77691092
C        2.30609171       2.52438033       3.66887046
C        3.67061511       2.91617253       3.63710321
C        4.64074311       1.94308227       3.68283657
C        6.05870993       2.33712661       3.67602416
C        7.04741051       1.33273393       3.64677479
C        8.39249477       1.76417231       3.66940105
C        1.95295116       1.13963745       3.83643085
52
Lattice="8.887683617333732 0.0 0.0 4.443841808666866 7.696956204701445 0.0 0.0 0.0 30.000002767598083" Properties=species:S:1:pos:R:3 energy=-13215.925254814336 pbc="T T T"
C       12.71980838       7.03615248      -0.21650664
C        9.03671407       6.70706911      -0.25591996
C       10.34365861       6.31496495      -0.05057714
C       10.64286693       4.97274964      -0.11658419
C        6.59878069       6.17586915      -0.43748289
C        8.03615998       5.78782044      -0.28165247
C        8.29862128       4.30271961      -0.22693278
C        9.69291220       3.94667723      -0.15827809
C       10.04523953       2.61873998      -0.34101509
C        4.17478052       5.57964689      -0.20133803
C        5.55061616       5.20741559      -0.34524118
C        5.89572047       3.80736546      -0.18898326
C        7.25358344       3.36420333      -0.14449863
C        7.65159702       1.97032569      -0.18958229
C        8.98379058       1.62426506      -0.32574249
C        3.17759664       4.60664729      -0.14851497
C        3.49498471       3.25160971      -0.15606150
C        4.84979565       2.80941634      -0.28015045
C        5.23146122       1.38780024      -0.23352389
C        6.58457195       1.01346256      -0.18121276
C       11.39413482       7.32183285      -0.10958603
C        2.50932460       2.18067672      -0.37395995
C        2.89268239       0.85260793      -0.45964789
C        4.22752981       0.35925439      -0.29548348
C        0.46920215       0.28203020      -0.45379179
C        6.24291783       7.58986762      -0.48653491
C        0.60538724       0.77989513       3.57267017
C        2.97496367       0.18414214       3.78630876
C        4.35036293       0.61614133       3.78754859
C        9.83295098       7.27315945       3.80668288
C       11.20182846       7.67212402       3.59978738
C       12.16641054       6.66274357       3.51918231
C        4.64625258       7.03461580       3.46763019
C        5.66295737       6.09600531       3.55388872
C        7.03990398       6.46032746       3.64023168
C        8.12427159       5.52590218       3.74981770
C        9.46718903       5.89565026       3.81038638
C       10.51484607       4.89337907       3.76421309
C       11.88371110       5.24702089       3.65742312
C        3.98701754       4.22958997       3.63553542
C        5.34140720       4.66208866       3.52765317
C        6.40469767       3.76460592       3.59846934
C        7.80705772       4.10357062       3.59786764
C        8.78902944       3.13046170       3.69212419
C       10.15868459       3.48211090       3.80859373
C        2.25302513       2.48175856       3.67375869
C        3.58977896       2.87533185       3.64629930
C        4.70900496       1.98990170       3.67227977
C        6.04261877       2.36698568       3.50949918
C        7.08698115       1.36341155       3.60883949
C        8.49262519       1.70874605       3.61547148
C        1.93148651       1.11574736       3.75663811
52
Lattice="8.887683617333732 0.0 0.0 4.443841808666866 7.696956204701445 0.0 0.0 0.0 30.000002767598083" Properties=species:S:1:pos:R:3 energy=-13214.59216925482 pbc="T T T"
C       12.63585977       6.79080353      -0.01813443
C        8.96632629       6.58086934      -0.00576100
C       10.21622256       6.19739334       0.08550307
C       10.57719406       4.84179495       0.01738253
C        6.47363143       6.07156152      -0.15730933
C        7.94465595       5.62637744       0.05243467
C        8.23466462       4.15837119      -0.00272585
C        9.57771182       3.80159913      -0.03450910
C        9.86811244       2.41857957      -0.07665538
C        4.05975345       5.46645602      -0.00745410
C        5.40332414       5.00377299      -0.06983497
C        5.76752008       3.69595212       0.07002250
C        7.12683885       3.22292205       0.04615019
C        7.51092099       1.81654121      -0.04021766
C        8.86029889       1.50772531      -0.04570669
C        3.01007802       4.49020619       0.00768696
C        3.38232887       3.01119609       0.00989288
C        4.75920704       2.66418982      -0.08672779
C        5.03681828       1.20604000      -0.03479350
C        6.50512494       0.81838324       0.01954402
C       11.24244962       7.19881398      -0.00196507
C        2.37699943       2.06827419      -0.01164642
C        2.73175043       0.60999728       0.01574898
C        4.07098304       0.20983377      -0.08218619
C        0.26788723       0.13786397      -0.05775217
C        6.18344145       7.40701064      -0.08239771
C        0.74826031       0.86815427       3.36087400
C        3.07224648       0.28130496       3.44481284
C        4.48783495       0.72808793       3.43857280
C        9.92463366       7.47911286       3.57380780
C        6.87654746       0.13839901       3.43044413
C       12.33885560       6.81294009       3.42392057
C        4.74724689       7.26930309       3.35755090
C        5.77547011       6.22111368       3.42117161
C        7.21229038       6.65557565       3.37909198
C        8.25199916       5.63815362       3.42568122
C        9.57554322       6.02208467       3.47438661
C       10.62143872       5.01779153       3.45791951
C       11.99316026       5.39714720       3.47558823
C        4.11591828       4.39719125       3.45384184
C        5.47906053       4.86772388       3.38711045
C        6.51155785       3.85944017       3.45976904
C        7.90657933       4.28762922       3.31209662
C        8.90779200       3.25080271       3.45069649
C       10.29403157       3.62755606       3.46986367
C        2.41562441       2.64411165       3.30789186
C        3.73767891       3.06694498       3.33852948
C        4.77363264       2.17282001       3.37978433
C        6.19237091       2.52491893       3.31346532
C        7.21861485       1.49787420       3.47273706
C        8.59815755       1.89159237       3.45117198
C        2.05301314       1.34934324       3.43062810
52
Lattice="8.887683617333732 0.0 0.0 4.443841808666866 7.696956204701445 0.0 0.0 0.0 30.000002767598083" Properties=species:S:1:pos:R:3 energy=-13213.036771859282 pbc="T T T"
C       12.61744093       6.74973266      -0.02089228
C        8.77953117       6.60122746       0.00193752
C       10.28708318       6.21616413      -0.09080369
C       10.56267069       4.72746557      -0.11793334
C        6.48324613       5.94527109       0.03450821
C        7.76995164       5.58352281       0.12472709
C        8.16071731       4.29493222      -0.07970919
C        9.53203179       3.79824047      -0.05939639
C        9.91668096       2.44225991       0.07975718
C        4.13253025       5.31613329      -0.01962934
C        5.52106728       5.01676234      -0.09117430
C        5.78224075       3.54133131       0.15584287
C        7.18629301       3.27429463      -0.03724028
C        7.45919023       1.91379558      -0.09101610
C        8.83299592       1.43333451       0.05220536
C        3.07319480       4.32340659      -0.06143878
C        3.39685046       2.99836583       0.02841304
C        4.74463657       2.60091129      -0.09210840
C        5.10851167       1.31370096      -0.07644563
C        6.39682763       0.94129368      -0.05130771
C       11.28895798       7.15521367       0.01432783
C        2.36544366       1.96940404       0.07765525
C        2.64225946       0.65909373       0.22977151
C        4.03224518       0.31377167      -0.00931074
C        0.27776500       0.03552141       0.12683613
C        6.01408575       7.32476490       0.23655548
C        0.72627306       1.01734115       3.38034781
C        3.15105713       0.38822913       3.36165079
C        4.44216293       0.72244514       3.29515758
C        9.91126836       7.39495005       3.32460692
C        6.80770258       0.09583856       3.38532491
C       12.35524538       6.89877911       3.46175721
C        4.89478332       7.29735973       3.43090806
C        5.85905078       6.33786851       3.49788654
C        7.17002944       6.63919565       3.28814076
C        8.16972942       5.62787146       3.34828105
C        9.61181386       6.05538949       3.31054039
C       10.64268295       5.09143221       3.27287438
C       12.05378492       5.51091755       3.39399040
C        4.16245330       4.50681016       3.50273032
C        5.53210756       4.84833451       3.53131400
C        6.59339653       3.89725549       3.46459772
C        7.89787296       4.18555772       3.32605739
C        8.93091331       3.26344100       3.44632819
C       10.25067834       3.71242811       3.35611287
C        2.35962401       2.74301202       3.30633829
C        3.75023987       3.10227707       3.29480385
C        4.82212207       2.04916478       3.41728858
C        6.23720750       2.47581270       3.44949843
C        7.21922810       1.48157064       3.48394798
C        8.57487093       1.87572785       3.40132896
C        2.12891130       1.28071788       3.40405570
52
Lattice="8.887683617333732 0.0 0.0 4.443841808666866 7.696956204701445 0.0 0.0 0.0 30.000002767598083" Properties=species:S:1:pos:R:3 energy=-13213.47175222505 pbc="T T T"
C        8.79839262       0.01188194      -0.06905552
C        9.53356314       7.34004549      -0.03041276
C       10.87712049       7.00246461       0.18307473
C       11.14582983       5.55811203       0.12052766
C        7.17430886       6.83122827      -0.43138328
C        8.51917626       6.39542693      -0.25332831
C        8.86831824       5.01391117      -0.03682967
C       10.16923960       4.59094808      -0.00909566
C       10.54508908       3.25287532      -0.32528567
C        4.65562642       6.25833619      -0.07731663
C        6.08482461       5.88782021      -0.23361810
C        6.41409106       4.44384270      -0.11021616
C        7.80746833       4.00353796      -0.01116649
C        8.05975234       2.66412671      -0.04248491
C        9.47089164       2.25327932      -0.35182962
C        3.59933767       5.26861529       0.16305789
C        3.99245591       3.81890345      -0.15670497
C        5.32884801       3.38824629      -0.04720960
C        5.71487389       2.02129389      -0.08607722
C        7.09352604       1.63672382       0.04071892
C        7.41445763       0.30153689       0.12295133
C        3.01781475       2.82495113      -0.36882820
C        3.36598353       1.42768994      -0.58987467
C        4.73089177       1.07056504      -0.23828946
C        0.89579941       0.88437251      -0.40014218
C        2.32683023       0.53031386      -0.67967494
C        0.07888086       0.08925190       3.39072329
C        6.95305886       7.22679419       3.81382591
C        3.88446167       0.00295160       3.83760758
C        9.31613574       6.69278216       3.75640792
C       10.70368357       7.01289608       3.48356137
C       11.67893798       5.98755957       3.31379683
C        4.15966701       6.43609075       3.22431475
C        5.15456676       5.40777153       3.25220874
C        6.50465301       5.88805751       3.64264557
C        7.61641068       4.84353338       3.72740119
C        9.01752112       5.27112251       3.92121402
C       10.03774277       4.24311792       3.82621268
C       11.39603057       4.60867279       3.48697246
C        3.40970116       3.59292343       3.41655090
C        4.78031262       4.07993027       3.34216365
C        5.90621772       3.08625614       3.25240783
C        7.26797793       3.45173902       3.58031891
C        8.34418399       2.43396059       3.61549281
C        9.70024009       2.82741035       3.76437129
C        1.75210195       1.83840402       3.76765262
C        3.13939826       2.23913457       3.56735978
C        4.19369973       1.34588415       3.55218673
C        5.56242345       1.74053196       3.41718015
C        6.58794127       0.69859682       3.30518733
C        7.96386312       1.09540967       3.39539910
C        1.46149247       0.47085615       3.66532694
64
Lattice="9.860000170089029 0.0 0.0 4.930000085044514 8.53900664730135 0.0 0.0 0.0 29.999997077512198" Properties=species:S:1:pos:R:3 energy=-16267.274120503966 pbc="T T T"
C        4.95700564       8.37674062      -0.56855029
C        1.29157030       0.57316871      -0.61586350
C        9.81385044       0.16503077       3.88112482
C        1.21210264       0.82977226       3.87718575
C        7.45336048       8.37907449      -0.56367353
C        3.73270125       0.54863999      -0.42334897
C        2.44590517       0.16712700       3.86453537
C        3.63215390       0.85921520       3.84644030
C        9.88641117       8.37317919      -0.45805715
C        6.19568591       0.56797841      -0.51884307
C        4.84315813       0.14044584       3.82394273
C        6.14194989       0.81581050       3.82464477
C       12.37327970       8.36616577      -0.42163727
C        8.67985675       0.55172518      -0.50407180
C        7.40056413       0.15274422       3.87925043
C        8.61589098       0.91180352       3.88556872
C        1.23433102       1.98168354      -0.43492165
C        2.50589834       2.69648425      -0.42091158
C       11.05571549       2.26433819       3.93309294
C        2.41823012       2.99213143       3.95087052
C        3.69948883       1.94226030      -0.40055560
C        4.92407521       2.75540170      -0.40595100
C        3.66802852       2.29417751       3.85152510
C        4.94065086       2.95285017       3.77144119
C        6.12708594       2.01419985      -0.52128638
C        7.42117350       2.72326007      -0.56290741
C        6.18545123       2.25749437       3.75276438
C        7.36439666       3.01414782       3.90796867
C        8.67577077       2.00927675      -0.56005984
C        9.88492625       2.70047854      -0.45687100
C        8.59084264       2.28836899       3.91760879
C        9.81605809       2.99473052       3.92557962
C        2.48972892       4.11820458      -0.20209747
C        3.71644112       4.81648683      -0.23697031
C       12.28976452       4.43078630       3.96896953
C        3.68472841       5.11993130       3.84101039
C        4.98159155       4.16260909      -0.40407661
C        6.18129228       4.84430387      -0.50401067
C        4.92300639       4.35802542       3.76644316
C        6.08907367       5.11630873       3.80146391
C        7.42717035       4.13178673      -0.55529056
C        8.69207329       4.83071974      -0.48884895
C        7.33214361       4.47034265       3.86143440
C        8.62228026       5.13575955       3.82431544
C        9.92649503       4.13530675      -0.36272969
C       11.15275958       4.88822918      -0.18557112
C        9.81082243       4.40872160       3.82183467
C       11.04528164       5.14582957       3.88137230
C        3.70651703       6.25126870      -0.36301070
C        4.95729454       6.97918321      -0.48703274
C       13.51442682       6.54955145       3.81174887
C        4.89010061       7.24476330       3.81619573
C        6.19287088       6.25720344      -0.50575392
C        7.40856256       6.97246165      -0.57408372
C        6.14122814       6.52727771       3.73421476
C        7.35697208       7.24753495       3.79636333
C        8.65416553       6.23565145      -0.51398012
C        9.88627214       6.97280478      -0.39082871
C        8.63232662       6.55599102       3.78278808
C        9.84660635       7.25773709       3.72572530
C       11.11626181       6.29742928      -0.19583144
C       12.33746720       6.94867637      -0.28362389
C       11.07196181       6.52414716       3.77377801
C       12.29475269       7.26805263       3.79004997
52
Lattice="8.887683617333732 0.0 0.0 4.443841808666866 7.696956204701445 0.0 0.0 0.0 30.000002767598083" Properties=species:S:1:pos:R:3 energy=-13216.50731379835 pbc="T T T"
C       12.50307155       6.56071740       0.07362735
C        8.65927193       6.45465890      -0.10347308
C       10.06476310       6.03847711       0.14589222
C       10.41327673       4.63022098       0.10304380
C        6.29997054       5.80503499       0.05641902
C        7.66812012       5.44817317      -0.03060385
C        8.03621153       4.05997742       0.08738104
C        9.37226146       3.69023467       0.10400367
C        9.76023107       2.25938427      -0.00762474
C        3.96517694       5.16836578       0.11751118
C        5.35141651       4.78196129       0.12775512
C        5.66937872       3.44363078       0.17117412
C        7.03518550       3.11179401       0.16872734
C        7.34844436       1.72391644       0.17618855
C        8.73875448       1.27996331       0.04014567
C        2.91720795       4.17609056       0.05277062
C        3.26708939       2.82788228       0.19880593
C        4.65226066       2.47708897       0.05897245
C        4.98217325       1.10852878       0.07168628
C        6.31442814       0.72993923       0.03642173
C       11.17561068       7.03829175       0.07135743
C        2.23755167       1.87272115       0.02394697
C        2.47706142       0.49618782      -0.10217814
C        3.93955464       0.16487986      -0.12002817
C        4.58919810       7.59006048       0.00978178
C        5.94182355       7.18197449      -0.09541639
C        0.89139645       1.14176961       3.41235858
C        3.24231942       0.46765303       3.51504599
C        4.58983001       0.86047620       3.41116230
C       10.07047966       7.58106081       3.34933424
C        6.99999383       0.26283725       3.24431292
C       12.48699284       7.04510771       3.25024901
C        4.97626738       7.47846050       3.38070687
C        5.99895092       6.41750394       3.42755385
C        7.33115070       6.83134648       3.48452390
C        8.32997347       5.77656863       3.37046204
C        9.71687161       6.19193453       3.27452394
C       10.78553469       5.27129582       3.26018010
C        3.27025696       5.65058927       3.25808083
C        4.29682530       4.65026093       3.25972150
C        5.67645954       5.06572459       3.24768758
C        6.65641376       4.01048902       3.38302300
C        8.05416732       4.39507064       3.30900282
C        9.04766814       3.41606474       3.28647965
C       10.36083406       3.85842431       3.37525517
C        2.51048799       2.85658950       3.41072236
C        3.92564719       3.25950997       3.37973545
C        4.95680780       2.23576081       3.36964437
C        6.32699265       2.62161426       3.22829821
C        7.35002192       1.63206667       3.26626372
C        8.70612335       2.08742981       3.31639204
C        2.23785830       1.50084269       3.49298764
52
Lattice="8.887683617333732 0.0 0.0 4.443841808666866 7.696956204701445 0.0 0.0 0.0 30.000002767598083" Properties=species:S:1:pos:R:3 energy=-13216.29954372587 pbc="T T T"
C       12.47975738       6.61234062       0.02524458
C        8.67587056       6.37936422      -0.06186983
C       10.05181286       6.02945434       0.14223493
C       10.41475031       4.59164310       0.18638272
C        6.28859786       5.80848786      -0.02341727
C        7.60933698       5.40283442      -0.02154819
C        7.96172119       4.03368499       0.08406949
C        9.35371908       3.59066595       0.15379692
C        9.76822821       2.30149767      -0.00333999
C        3.97375000       5.17700727       0.07365223
C        5.30778420       4.79215368       0.12169905
C        5.63640453       3.41236302       0.11986552
C        6.96190744       3.01888749       0.09000557
C        7.34706943       1.68511992       0.07319274
C        8.70548433       1.27354640      -0.01533214
C        2.91021779       4.25401422       0.06026027
C        3.27776705       2.86663614       0.08156138
C        4.58852441       2.47158127       0.14438309
C        4.93836497       1.09854969       0.13651038
C        6.39355341       0.68349220       0.13651393
C       11.08795946       6.99551977       0.07419083
C        2.26791911       1.89655436       0.00361640
C        2.58924976       0.50927583      -0.24311370
C        3.87903129       0.11854659      -0.13233583
C        4.61919492       7.56881803      -0.00086211
C        5.96967844       7.16772931      -0.14956727
C        0.83764196       1.10770223       3.38346561
C        3.29630676       0.50413252       3.44997837
C        4.68278985       0.88198795       3.43774891
C       10.06194482       7.57465279       3.37565600
C        6.98418798       0.29022198       3.37076955
C       12.50895964       7.02456650       3.30162515
C        4.94936970       7.39647695       3.38055311
C        5.96110361       6.44989776       3.36780906
C        7.35464440       6.79049069       3.51158512
C        8.40780736       5.84808249       3.38091395
C        9.72567664       6.23561571       3.42811644
C       10.77730559       5.26695596       3.37689761
C        3.29982095       5.65606764       3.29361557
C        4.28981825       4.65284724       3.17133349
C        5.65784695       5.02665166       3.23199726
C        6.70771613       4.07023470       3.27416399
C        8.03650838       4.45601616       3.39229997
C        9.05388508       3.48856602       3.26705473
C       10.43786362       3.90965381       3.41117741
C        2.52055330       2.90183492       3.50973560
C        3.93955908       3.23614248       3.39704243
C        5.00349214       2.28728093       3.34481663
C        6.34755342       2.69729910       3.37400467
C        7.33690459       1.67606871       3.22623093
C        8.69862926       2.06265361       3.25746403
C        2.24027575       1.45473872       3.42814755
52
Lattice="8.887683617333732 0.0 0.0 4.443841808666866 7.696956204701445 0.0 0.0 0.0 30.000002767598083" Properties=species:S:1:pos:R:3 energy=-13214.180000600318 pbc="T T T"
C       12.32274223       6.42758701      -0.15373915
C        8.62873740       6.29504143       0.11408408
C        9.93827003       5.90632970       0.08287587
C       10.35306178       4.54427974       0.02420916
C        6.20798124       5.62737820      -0.27565417
C        7.60010178       5.37908120      -0.09313226
C        7.91766405       3.97913416      -0.09305671
C        9.30320682       3.60411657      -0.21739541
C        9.59087715       2.16300089      -0.16824474
C        3.75614929       5.03327210      -0.22576138
C        5.16921544       4.70758471      -0.26220444
C        5.57356594       3.28820119      -0.16215845
C        6.95186614       2.89530425      -0.12881186
C        7.29570217       1.52166653      -0.14164568
C        8.66154095       1.13137635      -0.27531644
C        2.77541829       4.10333154      -0.08378153
C        3.08554245       2.72404481      -0.17129588
C        4.57405348       2.26591938      -0.17643385
C        4.85344848       0.91235805      -0.10556524
C        6.21257706       0.51983884       0.00482690
C       10.93624048       6.81253392       0.06014118
C        2.01544046       1.70642103      -0.05964436
C        2.39853784       0.37769367      -0.06411930
C        8.28511644       7.66264175      -0.08331403
C        4.49304047       7.49524578      -0.25709225
C        5.88779888       7.14101737      -0.23079181
C        0.95962453       1.22104775       3.33821663
C        3.30290409       0.68573723       3.39242528
C        4.66258903       1.03474945       3.51974757
C        5.77909007       0.03138419       3.76941682
C        7.12526662       0.43159925       3.66149990
C       12.62867141       7.20164826       3.63351437
C        5.12321457       7.56539982       3.32092920
C        6.11309722       6.56546431       3.30057996
C        7.46719359       6.95600158       3.34867033
C        8.45281370       5.92555109       3.59939810
C        9.88964107       6.30347229       3.71064968
C       10.86483949       5.34189069       3.75389448
C        3.37620970       5.71944571       3.69427501
C        4.38408191       4.76776766       3.56483923
C        5.74999623       5.18227056       3.37802723
C        6.77378895       4.14208629       3.46855718
C        8.05920219       4.59002732       3.51992621
C        9.19882187       3.59134497       3.64333792
C       10.57537741       3.91684572       3.55377318
C        2.72850021       3.04427072       3.48467144
C        4.11813131       3.41190886       3.45471906
C        5.00574427       2.40665941       3.50509089
C        6.40530381       2.73971113       3.49116389
C        7.49191201       1.82775925       3.60496002
C        8.84902308       2.17177304       3.49057464
C        2.30288504       1.68639264       3.34016037
52
Lattice="8.887683617333732 0.0 0.0 4.443841808666866 7.696956204701445 0.0 0.0 0.0 30.000002767598083" Properties=species:S:1:pos:R:3 energy=-13213.391635244161 pbc="T T T"
C       12.44380403       6.49652344      -0.19629160
C        8.49523728       6.23876195      -0.04293462
C        9.91574242       5.81008142      -0.08066995
C       10.26540967       4.46374666      -0.19711105
C        6.14873772       5.68645641      -0.17595125
C        7.46344565       5.16134895      -0.04540895
C        7.85826855       3.79289720      -0.27584704
C        9.19517703       3.47134702      -0.19517620
C        9.58330395       2.17501793      -0.09026865
C        3.86218558       5.06008624      -0.26312787
C        5.14323852       4.62394894      -0.28773165
C        5.49527789       3.34723052      -0.02616801
C        6.80909883       2.86374498      -0.24379183
C        7.18036048       1.49919047      -0.24738512
C        8.59710702       1.16949118      -0.20583964
C        2.79676117       4.06752840      -0.18978848
C        3.19497472       2.69394400      -0.17594236
C        4.50030615       2.37903115      -0.28915457
C        4.83342275       0.92113020      -0.15392579
C        6.21615968       0.53180344      -0.07938657
C       11.01116898       6.86196100      -0.01354305
C        2.10305702       1.81454948      -0.14530030
C        2.48942329       0.35972366       0.01806866
C        8.21325686       7.62895654      -0.16342406
C        4.55843516       7.45399982      -0.15352851
C        5.87913961       7.01236993      -0.06232488
C        0.97017954       1.28891054       3.41467649
C        3.29442524       0.63280929       3.41222349
C        4.72670745       1.00866944       3.46484213
C        5.78586781       0.11093873       3.53320708
C        7.20730083       0.51833860       3.58248040
C       12.60520526       7.16828834       3.66896645
C        5.04374801       7.56631881       3.53658173
C        6.15952736       6.59476079       3.49389419
C        7.51201417       6.98508652       3.41519019
C        8.54454704       6.03532821       3.63487240
C        9.84696064       6.39633170       3.57538003
C       10.86111555       5.33554222       3.55843655
C        3.35714829       5.79743869       3.64047431
C        4.44206605       4.81358011       3.58395042
C        5.81615260       5.20577404       3.51472425
C        6.78898245       4.19568168       3.61891723
C        8.24040251       4.61031257       3.55284619
C        9.16386927       3.57600305       3.56096865
C       10.50592639       3.95962036       3.60939230
C        2.67594644       2.95856145       3.45066538
C        4.03284777       3.39574839       3.53645286
C        5.14992206       2.41229153       3.64117644
C        6.49766018       2.80194091       3.56238001
C        7.53552121       1.83549864       3.68677025
C        8.85369267       2.27434491       3.54032878
C        2.30558067       1.62361715       3.59215286
52
Lattice="8.887683617333732 0.0 0.0 4.443841808666866 7.696956204701445 0.0 0.0 0.0 30.000002767598083" Properties=species:S:1:pos:R:3 energy=-13215.902867328545 pbc="T T T"
C       12.31044256       6.46549565      -0.18100745
C        8.62448020       6.21700135      -0.23902181
C        9.92450746       5.80114574      -0.33436177
C       10.26301800       4.47789052      -0.34529984
C        6.19710271       5.65606764       0.02868678
C        7.57608015       5.23598327      -0.21136956
C        7.87732730       3.82183905      -0.26745173
C        9.22732645       3.41725480      -0.27088504
C        9.59091181       2.03932967      -0.13914380
C        3.74750780       5.06888771      -0.26886221
C        5.07561391       4.64934816      -0.11414274
C        5.44263169       3.27204694      -0.29609229
C        6.82125274       2.82664245      -0.29414411
C        7.18651520       1.45090013      -0.24747488
C        8.59560323       1.09404008      -0.06775259
C        2.71901705       4.13262712      -0.36946990
C        3.06751023       2.70585528      -0.25845117
C        4.41153419       2.27046988      -0.15285660
C        4.77143561       0.80613246      -0.24697184
C        6.17124489       0.47738682      -0.28576658
C       10.88444839       6.79209403      -0.28637628
C        2.05248522       1.69631307      -0.09832533
C        2.46650551       0.27585681      -0.06921284
C        8.23542452       7.54614466      -0.11477644
C        4.44341964       7.43545922      -0.00541260
C        5.83117634       7.07306926       0.07878932
C        1.04173784       1.22259065       3.75184232
C        3.43346949       0.67839422       3.58353359
C        4.83554691       1.10588558       3.47124659
C        5.81730355       0.10881547       3.30744658
C        7.16955573       0.47355445       3.53703767
C       12.61211454       7.20407105       3.59691488
C        5.05959031       7.55047207       3.75823790
C        6.12723041       6.57946419       3.74731404
C        7.51428675       6.99701735       3.63366457
C        8.55451369       6.04022443       3.48345649
C        9.90456705       6.39151368       3.34796998
C       10.94254184       5.45696220       3.43945357
C        3.43395743       5.79045475       3.49193712
C        4.41682058       4.77192798       3.62952824
C        5.75339844       5.21217584       3.76342919
C        6.80443635       4.28518244       3.72807487
C        8.22447311       4.69163309       3.65815547
C        9.25027089       3.66259042       3.54637240
C       10.61207821       4.05462170       3.46319613
C        2.73054171       3.04522437       3.66176298
C        4.08457053       3.41796315       3.65812169
C        5.11837700       2.55402342       3.62555811
C        6.46388698       2.89890465       3.76879824
C        7.48104682       1.87349704       3.60788140
C        8.88255187       2.25694815       3.62006374
C        2.39243023       1.65721082       3.57615325
52
Lattice="8.887683617333732 0.0 0.0 4.443841808666866 7.696956204701445 0.0 0.0 0.0 30.000002767598083" Properties=species:S:1:pos:R:3 energy=-13215.915642529044 pbc="T T T"
C       12.21822574       6.39881225      -0.16543179
C        8.57803939       6.21126790      -0.26003851
C        9.92417772       5.82248063      -0.45029893
C       10.25188973       4.40802889      -0.36085951
C        6.15828931       5.63395864       0.01976443
C        7.57441460       5.28440071      -0.25147079
C        7.92955400       3.87155053      -0.20996619
C        9.28612114       3.46681697      -0.35012230
C        9.54415726       2.10297792      -0.17276235
C        3.73627821       5.04641076      -0.20728389
C        5.14846270       4.62513189      -0.06196493
C        5.46089411       3.24360369      -0.36939791
C        6.88732111       2.88991654      -0.27395485
C        7.20237350       1.45682555      -0.18906414
C        8.50928871       1.05532444      -0.07862934
C        2.72855175       3.98698465      -0.39104119
C        3.01907858       2.62845422      -0.24596220
C        4.39850840       2.23604432      -0.20978222
C        4.78439474       0.90288289      -0.21313910
C        6.11709045       0.47567860      -0.36405107
C       10.94051990       6.81496292      -0.40632179
C        2.03815383       1.64588347      -0.11290647
C        2.37931023       0.27870443      -0.04369896
C        8.21972620       7.57622858      -0.15137680
C        4.40390234       7.34426981       0.05158323
C        5.78716453       6.95414938       0.04558937
C        1.04195914       1.32283483       3.79808049
C        3.40768455       0.73631615       3.63600825
C        4.76376553       1.11709918       3.47813010
C        5.79813904       0.10093565       3.38547689
C        7.19469809       0.53677254       3.45761289
C       12.67550772       7.19079462       3.55651858
C        5.16885993       7.60243747       3.80118407
C        6.16037703       6.61249971       3.84221851
C        7.52710724       7.04198547       3.69927256
C        8.52334369       6.02969786       3.46461727
C        9.89256068       6.43991601       3.24197457
C       10.97077890       5.38998906       3.38062688
C        3.43268027       5.85253077       3.46887003
C        4.42821371       4.87292940       3.69808605
C        5.79218340       5.23484121       3.79598833
C        6.80068131       4.23010102       3.83014637
C        8.19538372       4.59391479       3.60353088
C        9.22536227       3.63355258       3.61201684
C       10.62989713       4.04101377       3.45169635
C        2.73965603       3.07852918       3.65335523
C        4.08396083       3.49145985       3.68402840
C        5.14239597       2.42795519       3.62377524
C        6.49695627       2.86829903       3.70127495
C        7.53322641       1.89602110       3.62694103
C        8.91958507       2.26331796       3.68686624
C        2.40496453       1.71911265       3.64428979
64
Lattice="9.860000170089029 0.0 0.0 4.930000085044514 8.53900664730135 0.0 0.0 0.0 29.999997077512198" Properties=species:S:1:pos:R:3 energy=-16265.453696746818 pbc="T T T"
C        4.93277863       8.38082266      -0.62351387
C        1.24148445       0.54031914      -0.61133283
C        9.83393526       0.19784583       3.81291827
C        1.16743191       0.93089938       3.90358294
C        7.40987394       8.33973210      -0.58331958
C        3.71341016       0.58889048      -0.47440208
C        2.42540721       0.20167349       3.81723103
C        3.69850677       0.78067735       3.86649159
C        9.91021814       8.39533363      -0.45692917
C        6.15704161       0.57498098      -0.50558235
C        4.94903777       0.14189230       3.74484581
C        6.17091562       0.90704311       3.82201412
C       12.32012543       8.41573693      -0.43834406
C        8.65508350       0.57073526      -0.56663745
C        7.37270568       0.16277973       3.86750520
C        8.59805720       0.85112409       3.93549187
C        1.26528255       1.91825317      -0.51041178
C        2.46239503       2.64551693      -0.25755405
C       11.08612570       2.30449896       4.00395281
C        2.48118720       2.96187207       4.07104716
C        3.71448884       1.98138971      -0.36984170
C        5.00296014       2.65836451      -0.44242708
C        3.65242113       2.24869530       3.89769455
C        4.87442518       3.04953043       3.68239947
C        6.21370999       1.96711243      -0.59214330
C        7.39553651       2.70304805      -0.59695498
C        6.11585738       2.35196204       3.75326034
C        7.33892828       2.98297642       3.83367554
C        8.63226154       1.99706317      -0.56720341
C        9.88763479       2.64357549      -0.44209283
C        8.62494542       2.33020102       3.98787115
C        9.86579884       3.05383629       3.95295492
C        2.50265045       4.12777963      -0.12747107
C        3.71976493       4.85037368      -0.19443920
C       12.34224732       4.41289731       4.09872713
C        3.64882124       5.13373530       3.94343410
C        4.96085301       4.05677086      -0.35482098
C        6.18831950       4.77726868      -0.56271810
C        4.89213078       4.41598053       3.75212249
C        6.14322578       5.14283410       3.68221608
C        7.42440265       4.07414024      -0.60740066
C        8.64743017       4.77972185      -0.51830668
C        7.35264452       4.42079615       3.83629140
C        8.59607238       5.18461881       3.81566625
C        9.79485515       4.03058566      -0.30234803
C       11.11776940       4.75449898      -0.08143867
C        9.84657184       4.52032694       3.90949697
C       11.10102712       5.21908444       3.94791449
C        3.73042063       6.29930662      -0.27899166
C        4.94175518       6.93890216      -0.52337571
C       13.54229414       6.51232995       3.84343793
C        4.88037470       7.30714260       3.72828791
C        6.19046898       6.23423259      -0.59096897
C        7.45914436       6.94761741      -0.65877323
C        6.11125078       6.58596049       3.69664717
C        7.32245912       7.28742260       3.67865070
C        8.70507863       6.22209888      -0.58452645
C        9.91788922       6.93290530      -0.38325919
C        8.58824847       6.59041820       3.69078442
C        9.82093485       7.28821435       3.73107731
C       11.08460036       6.17268351      -0.13469746
C       12.40781238       7.06274080      -0.24349961
C       11.06436369       6.58166350       3.81531129
C       12.34416115       7.21955720       3.86272902
52
Lattice="8.887683617333732 0.0 0.0 4.443841808666866 7.696956204701445 0.0 0.0 0.0 30.000002767598083" Properties=species:S:1:pos:R:3 energy=-13212.897230794366 pbc="T T T"
C       12.12994615       6.22469719      -0.35468257
C        8.50628734       6.17165816      -0.37514113
C        9.83349313       5.75548349      -0.40992130
C       10.12309564       4.35430462      -0.29798981
C        6.01556644       5.50011901      -0.32936333
C        7.53063209       5.23404754      -0.31342861
C        7.83947732       3.72366214      -0.31144221
C        9.19708521       3.28325075      -0.25304924
C        9.41216360       1.93498382      -0.28703219
C        3.57313944       4.78456894      -0.23211697
C        4.99639265       4.46745372      -0.25396200
C        5.35330336       3.08981121      -0.21019550
C        6.80119057       2.73236368      -0.32806484
C        7.08017762       1.35972316      -0.34825233
C        8.36597748       0.89728454      -0.28412591
C        2.57402693       3.83818616      -0.24978924
C        2.88974412       2.48347832      -0.35204915
C        4.31118335       2.05506975      -0.23477972
C        4.62557183       0.68518353      -0.32159639
C        6.06287025       0.29922964      -0.26178494
C       10.80770591       6.63077812      -0.39191841
C        1.88283533       1.41812769      -0.37417681
C        2.24277497       0.09028998      -0.55520826
C        7.99165757       7.42422963      -0.42471751
C        4.25564066       7.18623258      -0.28284698
C        5.60610997       6.85370700      -0.38996045
C        1.21107665       1.49384986       3.81027795
C        3.55485570       0.83780016       3.80194486
C        4.91664436       1.32043338       3.75030031
C        5.90846097       0.20599340       3.69480650
C        7.27477790       0.59987687       3.68113457
C       12.77521865       7.35624330       3.75361897
C        5.24650363       7.69412548       3.73797664
C        6.25065367       6.77816169       3.78250660
C        7.63365901       7.10997536       3.82816619
C        8.69859993       6.16802310       3.77055889
C        9.95268852       6.55202436       3.75685408
C       11.08462746       5.60032942       3.67688093
C        3.63995882       5.99352499       3.69709330
C        4.59399034       4.98895100       3.63575317
C        5.92548177       5.36770230       3.66351830
C        6.92560659       4.37717174       3.60491913
C        8.31639576       4.75958832       3.74859565
C        9.37231390       3.82452046       3.71842907
C       10.78988966       4.26692624       3.66432174
C        2.90976629       3.30669735       3.85654812
C        4.24515320       3.66839675       3.69786031
C        5.22680407       2.68361740       3.74498991
C        6.50898397       3.02293139       3.76715935
C        7.57119815       1.98115533       3.58752238
C        9.02166012       2.38003635       3.64664592
C        2.61280034       1.87062721       3.74920801
52
Lattice="8.887683617333732 0.0 0.0 4.443841808666866 7.696956204701445 0.0 0.0 0.0 30.000002767598083" Properties=species:S:1:pos:R:3 energy=-13212.02035537808 pbc="T T T"
C       12.10628536       6.08799040      -0.37219753
C        8.48414901       6.13593412      -0.16895842
C        9.75755410       5.63940234      -0.42610399
C       10.11442570       4.29100831      -0.21299512
C        6.03524555       5.44515846      -0.43652747
C        7.44278623       5.13309500      -0.32372499
C        7.83193612       3.83749826      -0.24444063
C        9.12802702       3.33576452      -0.31161285
C        9.41954305       1.85151602      -0.23936932
C        3.61297937       4.79630512      -0.27336026
C        4.99855858       4.40920028      -0.40264495
C        5.37608783       3.00855912      -0.32137508
C        6.75862656       2.74828508      -0.39773095
C        7.04517793       1.28921006      -0.35999207
C        8.42454376       0.89515594      -0.34975168
C        2.53031375       3.82077786      -0.14556248
C        2.90125989       2.39446817      -0.41176283
C        4.29322757       2.04730547      -0.20653466
C        4.59753741       0.68055393      -0.31029037
C        6.02660761       0.34577355      -0.23867074
C       10.81099702       6.65759849      -0.27076062
C        1.83435302       1.51550292      -0.49043749
C        2.16030970       0.06065222      -0.54194073
C        8.05236312       7.45568226      -0.31891942
C        4.19097299       7.18913085      -0.38789318
C        5.58727875       6.81802118      -0.46867778
C        1.24233286       1.46516308       3.67368581
C        3.58008072       0.92888026       3.72804288
C        4.92059404       1.26054639       3.80842931
C        5.89708473       0.28574436       3.84077692
C        7.27421353       0.62458641       3.80492756
C       12.84455591       7.42086298       3.81281894
C        0.87389127       0.18652315       3.61518441
C        6.29510898       6.75404407       3.64461864
C        7.64348879       7.21083368       3.66156656
C        8.55636410       6.11206269       3.84585001
C       10.07753115       6.53203596       3.92165929
C       11.17105752       5.67218368       3.89021022
C        3.60129296       6.00947394       3.76620037
C        4.62885139       5.02074757       3.68419727
C        5.98351568       5.39829815       3.67096262
C        6.97197363       4.38854709       3.54433890
C        8.29610073       4.75517114       3.73492550
C        9.38528547       3.76138769       3.78838225
C       10.77465172       4.24034318       3.71480912
C        2.91257835       3.29650229       3.82646775
C        4.22221409       3.66369605       3.62110183
C        5.19190125       2.66345836       3.75020165
C        6.66489705       3.02558259       3.70987468
C        7.63120157       2.05262031       3.69872063
C        9.00758114       2.39786949       3.64469329
C        2.56248183       1.97293511       3.62958779
52
Lattice="8.887683617333732 0.0 0.0 4.443841808666866 7.696956204701445 0.0 0.0 0.0 30.000002767598083" Properties=species:S:1:pos:R:3 energy=-13214.390653174692 pbc="T T T"
C       12.16285102       6.17706454      -0.32595135
C        8.32080494       5.98923757      -0.16655075
C        9.68011927       5.55323714       0.00757320
C       10.08148350       4.21497151      -0.18343557
C        5.92111970       5.40067650      -0.55994451
C        7.26388782       4.95042733      -0.26334829
C        7.62371991       3.57948169      -0.31720321
C        9.03239555       3.20445166      -0.20498998
C        9.36800159       1.87064676      -0.48113920
C        3.61714147       4.86382041      -0.37110790
C        4.92344966       4.41598514      -0.55887888
C        5.29773312       3.04890298      -0.49850129
C        6.58367696       2.57757578      -0.35901798
C        7.01337157       1.21444420      -0.31581228
C        8.38766076       0.88382325      -0.43378828
C        2.60859469       3.84910824      -0.25330343
C        2.93276939       2.43549905      -0.28913146
C        4.31367368       2.09332679      -0.42663992
C        4.58122673       0.66948610      -0.20666264
C        6.02916638       0.27461254      -0.28200531
C       10.75193836       6.59677918      -0.20930673
C        1.87445958       1.52000809      -0.44978700
C        2.26284780       0.04908223      -0.38656358
C        7.99920322       7.37507897      -0.18504602
C        4.31244985       7.19859623      -0.57666046
C        5.68428337       6.80501849      -0.59245477
C        1.16020711       1.48409652       3.41469071
C        3.59353934       0.88469336       3.57017895
C        4.98040282       1.28691348       3.85183320
C        6.01432483       0.34997654       4.12596669
C        7.39775945       0.71333260       4.02108403
C       12.82710583       7.43121624       3.80193241
C        0.80993372       0.12000773       3.50125497
C        6.35002331       6.82788384       3.39884130
C        7.76308235       7.19325918       3.54061319
C        8.76366044       6.30629857       3.81454848
C       10.06117692       6.61564507       4.15257020
C       11.08467990       5.64760923       4.11872323
C        3.56798014       6.02615790       3.95922931
C        4.62702763       5.08226279       3.72506728
C        6.00474302       5.47713902       3.53543522
C        7.01158515       4.46357602       3.62763072
C        8.37294542       4.93473346       3.73600713
C        9.38383411       3.91681817       3.78584304
C       10.78261331       4.24225848       3.97715932
C        2.91955341       3.30073816       3.57959279
C        4.28512200       3.63815374       3.70392526
C        5.30028567       2.65033125       3.65870828
C        6.72392194       3.03004865       3.61757875
C        7.72263539       2.13714573       3.84609798
C        9.07268075       2.51375599       3.72347728
C        2.52312717       1.90425465       3.50166647
52
Lattice="8.887683617333732 0.0 0.0 4.443841808666866 7.696956204701445 0.0 0.0 0.0 30.000002767598083" Properties=species:S:1:pos:R:3 energy=-13210.47418019265 pbc="T T T"
C       11.94257867       6.01966900      -0.23897115
C        8.24133305       5.86794113      -0.51488573
C        9.64210842       5.44983872      -0.52704941
C        9.94082347       4.09339955      -0.56969252
C        5.88625953       5.32355984      -0.22240717
C        7.32258297       4.89584629      -0.21487664
C        7.62109805       3.41269631      -0.31851058
C        9.00619643       3.05489772      -0.33753556
C        9.20072028       1.63891374      -0.24066336
C        3.34186325       4.68616717      -0.18830069
C        4.73272530       4.29801092      -0.29246167
C        5.04550422       2.84019706      -0.05134059
C        6.61765901       2.47879985      -0.09844087
C        6.88918308       1.02509299      -0.28962117
C        8.19402657       0.66649184      -0.25346874
C        2.35511262       3.58461700      -0.20806867
C        2.65303844       2.19586666      -0.22097981
C        4.05053337       1.83765657      -0.35533581
C        4.47389196       0.39436163      -0.47840268
C        5.72995362       0.04372563      -0.37593657
C       10.59114416       6.44708304      -0.35200826
C        1.65883904       1.21975281      -0.21647553
C        6.53550038       7.52715523      -0.13737870
C        7.92322774       7.15604467      -0.41531435
C        4.12117001       7.00567217      -0.20575787
C        5.48384388       6.58778307      -0.10283672
C        1.38597116       1.66277362       3.92775802
C        3.74335547       1.05427214       3.87975475
C        5.10401806       1.48196170       3.67085508
C        6.12863111       0.53228693       3.41440986
C        7.48781035       0.90625310       3.41378594
C       12.89953423       7.53568563       3.61728101
C        0.96727771       0.20194950       3.75963682
C        6.53994866       6.98242555       3.94864319
C        7.89946919       7.44325994       3.81206349
C        8.92468304       6.45368392       3.68231308
C       10.23024111       6.81592724       3.44998192
C       11.27093464       5.79670901       3.32307024
C        3.68380710       6.20083465       3.53534279
C        4.76681757       5.28939470       3.76173964
C        6.07898895       5.62441949       3.93190323
C        7.05321417       4.65770703       3.78284345
C        8.55998672       5.02144703       3.59225685
C        9.60030520       4.14733002       3.63079918
C       10.98850272       4.45098395       3.56767085
C        3.21721260       3.45019167       3.77370869
C        4.46493406       3.97364691       3.60327224
C        5.42066312       2.95722119       3.70962138
C        6.76931045       3.24542122       3.67786924
C        7.78258904       2.25396012       3.63870122
C        9.22662699       2.69669919       3.77062999
C        2.78006832       2.09892247       3.95080378
64
Lattice="9.860000170089029 0.0 0.0 4.930000085044514 8.53900664730135 0.0 0.0 0.0 29.999997077512198" Properties=species:S:1:pos:R:3 energy=-16268.299337554883 pbc="T T T"
C        4.95818983       8.32659365      -0.32645869
C        1.24206422       0.48705147      -0.35097558
C        9.86486608       0.22112825       3.81907880
C        1.19717065       0.96497258       3.77732564
C        7.38688633       8.30129979      -0.30771286
C        3.71817155       0.48588700      -0.38266266
C        2.42666831       0.24681059       3.79689577
C        3.68553495       0.90094766       3.80351281
C        9.87147524       8.31278571      -0.41606341
C        6.15797930       0.48843187      -0.39621622
C        4.93540632       0.18808345       3.87019008
C        6.13413190       0.95186667       3.81399794
C       12.31424788       8.29945794      -0.42178024
C        8.63966345       0.48316367      -0.32983377
C        7.38817602       0.21327378       3.82432629
C        8.64717578       0.94031272       3.79135741
C        1.26275740       1.88586899      -0.41848404
C        2.46714558       2.59313173      -0.47257206
C       11.04875236       2.34432054       3.75892491
C        2.45424475       3.05236124       3.78925230
C        3.70945137       1.91010783      -0.40379363
C        4.94577313       2.64003575      -0.38096181
C        3.69178422       2.34732193       3.78741834
C        4.91629764       3.07874364       3.79610697
C        6.19527080       1.93286964      -0.40288355
C        7.40476449       2.64025760      -0.35212328
C        6.15618478       2.36723913       3.81584767
C        7.38926851       3.07818852       3.81693129
C        8.63259580       1.90608988      -0.31305402
C        9.90588565       2.61819388      -0.40224068
C        8.61368826       2.37084394       3.73412503
C        9.85502481       3.09057367       3.72342693
C        2.48789891       4.05583219      -0.53743509
C        3.71543540       4.78313637      -0.53028560
C       12.33987797       4.49264893       3.83691061
C        3.67866253       5.18643207       3.83169368
C        4.90975356       4.04657957      -0.43107231
C        6.17343879       4.75330395      -0.32923625
C        4.91677684       4.48517407       3.80712256
C        6.14981719       5.16132456       3.87109424
C        7.40708257       4.05231414      -0.38729785
C        8.62857094       4.75482042      -0.41900071
C        7.38956825       4.48239552       3.79934006
C        8.59079728       5.23001524       3.82068006
C        9.86067854       4.02477911      -0.42217859
C       11.10849607       4.76394388      -0.50356500
C        9.82362170       4.51765291       3.80246765
C       11.08422075       5.22218246       3.83382048
C        3.73148946       6.17954312      -0.51938833
C        4.92698687       6.86551319      -0.38909533
C       13.52827125       6.61703823       3.82732570
C        4.89818975       7.35459878       3.79556565
C        6.16607731       6.17092055      -0.37027456
C        7.44011456       6.88736788      -0.31197238
C        6.12385285       6.63976848       3.82262347
C        7.37621683       7.34650569       3.79114542
C        8.68309970       6.18374249      -0.40231956
C        9.89562238       6.89118863      -0.43353435
C        8.61548377       6.65835261       3.81586049
C        9.84368779       7.33749463       3.84565150
C       11.10472659       6.17772296      -0.52244394
C       12.36611050       6.90707013      -0.47771898
C       11.07021758       6.65079394       3.86605874
C       12.30847091       7.31462141       3.77856011
64
Lattice="9.860000170089029 0.0 0.0 4.930000085044514 8.53900664730135 0.0 0.0 0.0 29.999997077512198" Properties=species:S:1:pos:R:3 energy=-16268.223361874505 pbc="T T T"
C        4.92062322       8.29153938      -0.30382900
C        1.24817249       0.46778109      -0.30131076
C        9.80962543       0.25058697       3.75864390
C        1.22441581       0.93810112       3.73904813
C        7.43545472       8.33150097      -0.29989092
C        3.71262136       0.50375431      -0.31064128
C        2.45500792       0.21721383       3.80898413
C        3.68769035       0.92067653       3.82325746
C        9.88721969       8.31918583      -0.40499753
C        6.18800102       0.49653580      -0.39553982
C        4.91631243       0.25483762       3.83537836
C        6.17271309       0.93804591       3.83412318
C       12.36090146       8.35631070      -0.38782634
C        8.64727537       0.49295958      -0.31341095
C        7.37230537       0.20977052       3.83356116
C        8.57361328       0.94239811       3.73543937
C        1.22396126       1.89559292      -0.35890499
C        2.47497442       2.63409707      -0.52872673
C       11.11699638       2.39156572       3.70716977
C        2.46159341       3.06876926       3.73961114
C        3.70214708       1.92154148      -0.44586033
C        4.97179958       2.61178389      -0.40278396
C        3.67095892       2.33777054       3.77268059
C        4.90163878       3.07214336       3.80854339
C        6.16092645       1.88750575      -0.31353716
C        7.41132632       2.61065985      -0.30819205
C        6.13939024       2.37189206       3.79196577
C        7.36886817       3.06060617       3.80468615
C        8.64368830       1.92552394      -0.34045496
C        9.83976548       2.57823524      -0.36437828
C        8.62499472       2.35398926       3.75368925
C        9.85715556       3.08814022       3.71980043
C        2.50712394       4.03021394      -0.57893385
C        3.72383810       4.74668000      -0.52821106
C       12.28600490       4.48935175       3.78299021
C        3.68215790       5.20466025       3.78440118
C        4.98025158       4.03176492      -0.44741624
C        6.16253166       4.72931359      -0.37301860
C        4.91386814       4.50257105       3.83968817
C        6.14532596       5.25462481       3.84459155
C        7.39594965       4.02756061      -0.30005361
C        8.63962499       4.74999395      -0.36059007
C        7.36545168       4.50688874       3.85321609
C        8.62763227       5.19868312       3.79803361
C        9.86545176       4.02046536      -0.48832933
C       11.10907682       4.71560720      -0.58507762
C        9.86043302       4.51715695       3.73713135
C       11.07828897       5.23012764       3.79207324
C        3.69657815       6.20871294      -0.52356502
C        4.95217030       6.91083567      -0.35721203
C       13.57106661       6.60963830       3.82213835
C        4.90928620       7.34644061       3.82795082
C        6.18328104       6.16600534      -0.29274834
C        7.40532651       6.89046195      -0.29596960
C        6.14499269       6.64354585       3.83251206
C        7.35622272       7.34104719       3.88498304
C        8.63718563       6.16578151      -0.35324535
C        9.87719601       6.87623199      -0.45571047
C        8.59626860       6.61092108       3.87402660
C        9.83244739       7.35825191       3.83231979
C       11.12907192       6.16997201      -0.54626077
C       12.32001598       6.91038211      -0.53993854
C       11.08394664       6.62800057       3.80015548
C       12.33979810       7.33008583       3.83377217
76
Lattice="10.744686035495397 0.0 0.0 5.372343017747698 9.3051667238899 0.0 0.0 0.0 30.000001496613915" Properties=species:S:1:pos:R:3 energy=-19320.785408881788 pbc="T T T"
C        0.00000000       0.00000000       0.00000000
C       12.44121501       8.48892838       0.00000000
C       13.85499006       8.32567900       0.00000000
C       14.42050008       7.01969034       0.00000000
C        8.19989203       8.97867332       0.00000000
C        9.61366600       8.81542501       0.00000000
C       10.17917602       7.50943636       0.00000000
C       11.59295106       7.34618804       0.00000000
C       12.15846000       6.04019832       0.00000000
C       13.57223505       5.87695001       0.00000000
C        5.93785304       7.99918237       0.00000000
C        7.35162700       7.83593298       0.00000000
C        7.91713702       6.52994433       0.00000000
C        9.33091207       6.36669602       0.00000000
C        9.89642101       5.06070737       0.00000000
C       11.31019605       4.89745798       0.00000000
C       11.87570607       3.59146933       0.00000000
C        5.08958801       6.85644203       0.00000000
C        5.65509803       5.55045338       0.00000000
C        7.06887200       5.38720399       0.00000000
C        7.63438201       4.08121534       0.00000000
C        9.04815706       3.91796703       0.00000000
C        9.61366600       2.61197730       0.00000000
C       11.02744104       2.44872899       0.00000000
C        3.39305903       4.57096135       0.00000000
C        4.80683300       4.40771304       0.00000000
C        5.37234302       3.10172332       0.00000000
C        6.78611699       2.93847500       0.00000000
C        7.35162700       1.63248635       0.00000000
C        8.76540205       1.46923804       0.00000000
C        9.33091207       0.16324831       0.00000000
C        2.54479400       3.42822102       0.00000000
C        3.11030402       2.12223236       0.00000000
C        4.52407799       1.95898298       0.00000000
C        5.08958801       0.65299433       0.00000000
C        6.50336305       0.48974601       0.00000000
C        0.84826503       1.14274034       0.00000000
C        2.26203900       0.97949203       0.00000000
C        0.00000000       0.00000000       3.40000010
C       11.87570607       8.81542501       3.40000010
C       13.28948004       8.97867332       3.40000010
C       14.13774507       7.83593298       3.40000010
C        7.63438201       8.32567900       3.40000010
C        9.04815706       8.48892838       3.40000010
C        9.89642101       7.34618804       3.40000010
C       11.31019605       7.50943636       3.40000010
C       12.15846000       6.36669602       3.40000010
C       13.57223505       6.52994433       3.40000010
C        4.80683300       7.99918237       3.40000010
C        5.65509803       6.85644203       3.40000010
C        7.06887200       7.01969034       3.40000010
C        7.91713702       5.87695001       3.40000010
C        9.33091207       6.04019832       3.40000010
C       10.17917602       4.89745798       3.40000010
C       11.59295106       5.06070737       3.40000010
C       12.44121501       3.91796703       3.40000010
C        3.67581404       5.38720399       3.40000010
C        5.08958801       5.55045338       3.40000010
C        5.93785304       4.40771304       3.40000010
C        7.35162700       4.57096135       3.40000010
C        8.19989203       3.42822102       3.40000010
C        9.61366600       3.59146933       3.40000010
C       10.46193103       2.44872899       3.40000010
C       11.87570607       2.61197730       3.40000010
C        3.11030402       4.08121534       3.40000010
C        3.95856905       2.93847500       3.40000010
C        5.37234302       3.10172332       3.40000010
C        6.22060804       1.95898298       3.40000010
C        7.63438201       2.12223236       3.40000010
C        8.48264704       0.97949203       3.40000010
C        9.89642101       1.14274034       3.40000010
C        1.97928399       1.46923804       3.40000010
C        3.39305903       1.63248635       3.40000010
C        4.24132298       0.48974601       3.40000010
C        5.65509803       0.65299433       3.40000010
C        1.41377504       0.16324831       3.40000010
64
Lattice="9.860000170089029 0.0 0.0 4.930000085044514 8.53900664730135 0.0 0.0 0.0 29.999997077512198" Properties=species:S:1:pos:R:3 energy=-16267.67406961443 pbc="T T T"
C        4.92834459       8.25286353      -0.17142498
C        1.24229593       0.45168858      -0.19017377
C        9.84906247       0.27611353       3.73094518
C        1.21616101       0.98674938       3.67103582
C        7.41834762       8.30189829      -0.12956040
C        3.70394062       0.44927387      -0.15863458
C        2.42909485       0.28973512       3.77621540
C        3.67327799       1.00205801       3.79666997
C        9.88186078       8.28832206      -0.29023601
C        6.18685628       0.47318437      -0.29149513
C        4.89328736       0.26090546       3.82593840
C        6.14540681       0.96574758       3.77655360
C       12.35235580       8.27005739      -0.23749881
C        8.64030435       0.44390510      -0.15396094
C        7.40089641       0.27727701       3.67066509
C        8.62663247       0.98125341       3.64433198
C        1.23010207       1.84815843      -0.34099233
C        2.48789496       2.56759827      -0.52299512
C       11.07312036       2.37488851       3.44202352
C        2.43940841       3.10334434       3.43449738
C        3.72073515       1.85316731      -0.37003200
C        4.96346000       2.57821256      -0.33241906
C        3.69715398       2.39025927       3.62621719
C        4.91987386       3.13207244       3.71536638
C        6.18979456       1.87806283      -0.18314063
C        7.42756179       2.59308835      -0.13968465
C        6.14903036       2.42105402       3.75507260
C        7.38357337       3.11489632       3.75274959
C        8.66805532       1.89065109      -0.17493612
C        9.86992327       2.56061246      -0.26038091
C        8.61951059       2.39524547       3.61509117
C        9.82644659       3.10192253       3.46178493
C        2.47978610       3.97030556      -0.65394972
C        3.73544332       4.71140684      -0.57263134
C       12.30576631       4.55728025       3.42400042
C        3.70884104       5.23991369       3.58307575
C        4.97314153       4.00036969      -0.33452220
C        6.17180696       4.67955312      -0.16785073
C        4.89138438       4.51967125       3.78430948
C        6.12082879       5.22510693       3.90046225
C        7.41261995       3.98512218      -0.08778753
C        8.65469304       4.70197378      -0.24065302
C        7.36507799       4.53303352       3.91472474
C        8.61161273       5.25929451       3.76837473
C        9.84544582       3.98732787      -0.43606442
C       11.10623320       4.71772217      -0.61538430
C        9.84471914       4.55246068       3.51654244
C       11.07017025       5.26882420       3.49854005
C        3.69228314       6.14293787      -0.48832440
C        4.95077609       6.87244575      -0.21224735
C       13.53597290       6.66694166       3.64123003
C        4.88251432       7.36739607       3.85025612
C        6.17426407       6.12290530      -0.04689613
C        7.41087670       6.84857962      -0.07060450
C        6.13322577       6.62905954       3.91606274
C        7.38193563       7.41218709       3.92381763
C        8.63692138       6.12045312      -0.21412667
C        9.89734689       6.88131482      -0.38202078
C        8.63838066       6.68885058       3.88543463
C        9.85345510       7.36910481       3.80125980
C       11.11276841       6.15245079      -0.51101817
C       12.36160546       6.85561671      -0.49336877
C       11.05931439       6.69424794       3.55388620
C       12.28702541       7.35486795       3.61788549
64
Lattice="9.860000170089029 0.0 0.0 4.930000085044514 8.53900664730135 0.0 0.0 0.0 29.999997077512198" Properties=species:S:1:pos:R:3 energy=-16267.277322059335 pbc="T T T"
C        4.95409300       8.26232617      -0.14189033
C        1.25058228       0.39880545      -0.15292367
C        9.82873608       0.32858648       3.62321679
C        1.21438128       1.01001503       3.65991769
C        7.43503271       8.27630272      -0.17970738
C        3.72438631       0.43853534      -0.33843267
C        2.42352099       0.28919282       3.71023524
C        3.67121626       0.96991540       3.64009218
C        9.85270969       8.24183019      -0.18602172
C        6.17794974       0.39782241      -0.18364743
C        4.92053744       0.25597744       3.62447690
C        6.13720428       1.01374507       3.65593425
C       12.36074271       8.27270875      -0.27744857
C        8.64530731       0.45826619      -0.22548046
C        7.39268599       0.24837439       3.61677131
C        8.59300987       0.99887619       3.65159683
C        1.24740243       1.83527930      -0.30917115
C        2.48177486       2.56751052      -0.27981300
C       11.05125384       2.42696312       3.56945810
C        2.46144255       3.10969714       3.52579703
C        3.74026584       1.87918391      -0.26722079
C        4.91864136       2.53282994      -0.21458614
C        3.71801281       2.35798552       3.57890201
C        4.85795109       3.16766605       3.65296836
C        6.20949977       1.84197424      -0.20067171
C        7.42795225       2.56973691      -0.17868785
C        6.08084451       2.46564784       3.74366458
C        7.40193368       3.13838185       3.66287667
C        8.64162066       1.83211917      -0.16682233
C        9.85959887       2.55529792      -0.30941568
C        8.59998582       2.42146913       3.61167369
C        9.84116264       3.14549880       3.55173968
C        2.49829825       4.00827445      -0.33298404
C        3.77690659       4.73068117      -0.30388323
C       12.28242868       4.56744196       3.46176619
C        3.72009623       5.24719037       3.58063145
C        4.94895594       3.96466860      -0.21048833
C        6.17980638       4.68514078      -0.19163896
C        4.91164865       4.60752286       3.63113635
C        6.12299306       5.26216771       3.75482413
C        7.36980881       3.98119002      -0.20721974
C        8.62775355       4.65030738      -0.21061749
C        7.36462640       4.54563854       3.65881435
C        8.58698837       5.26127538       3.66670334
C        9.88599705       3.94218583      -0.22806969
C       11.09311151       4.66940422      -0.32390692
C        9.89163598       4.56339443       3.57639954
C       11.06763721       5.30685915       3.47523594
C        3.68954502       6.14455293      -0.22405273
C        4.97569330       6.82328577      -0.21410892
C       13.54770432       6.66128498       3.59599531
C        4.91078787       7.43910687       3.62740434
C        6.19815880       6.10075876      -0.22625151
C        7.41568049       6.82405090      -0.15284479
C        6.12390708       6.69663308       3.80878989
C        7.37424976       7.42939871       3.79227340
C        8.65627755       6.12174084      -0.15082152
C        9.93799573       6.82074189      -0.20137867
C        8.59393474       6.70570822       3.67865662
C        9.86136874       7.36680644       3.65941384
C       11.15119381       6.08651894      -0.33986928
C       12.32274030       6.85043823      -0.30089664
C       11.06416354       6.70614798       3.61084151
C       12.28647522       7.38395989       3.57276712
64
Lattice="9.860000170089029 0.0 0.0 4.930000085044514 8.53900664730135 0.0 0.0 0.0 29.999997077512198" Properties=species:S:1:pos:R:3 energy=-16267.23864815213 pbc="T T T"
C        4.97198199       8.20894709       0.00374976
C        1.26631292       0.34112150       0.06326176
C        9.83359509       0.37945520       3.27742560
C        1.22539688       1.05795041       3.34073075
C        7.40625926       8.14649384      -0.05668514
C        3.78281470       0.34172591      -0.04589140
C        2.46154313       0.39644497       3.28676105
C        3.62420082       1.17091545       3.28341555
C        9.87238630       8.15235463       0.03110929
C        6.24060117       0.29926087       0.00646520
C        4.85404653       0.41455681       3.29402393
C        6.10071340       1.09040953       3.32538760
C       12.37684804       8.12977030      -0.03423293
C        8.65864493       0.33777896       0.02086869
C        7.38668519       0.36495410       3.35740598
C        8.60062869       1.10449158       3.39604338
C        1.23726832       1.77557305       0.01461449
C        2.52687647       2.41495068       0.17740408
C       11.04403928       2.49713674       3.51421745
C        2.42240090       3.25881880       3.58078626
C        3.75880659       1.71846196       0.11071991
C        4.94673546       2.49421522       0.08985418
C        3.68161955       2.56101968       3.39375980
C        4.88815720       3.22498716       3.30014600
C        6.18625186       1.76253616      -0.01440940
C        7.45921239       2.43094656      -0.03840174
C        6.11767950       2.49175417       3.35039158
C        7.39290685       3.25184087       3.28022190
C        8.63837277       1.71869564       0.04906533
C        9.89143286       2.48882082       0.06392238
C        8.58169650       2.50667728       3.36166353
C        9.82628489       3.21532436       3.44204422
C        2.47355063       3.87148765       0.19096454
C        3.75340429       4.55756126       0.10337914
C       12.28184792       4.68860362       3.62745659
C        3.69564047       5.37360839       3.52087295
C        4.98006917       3.86895856       0.06751438
C        6.24419021       4.60755836      -0.06567056
C        4.90449522       4.68108142       3.31908608
C        6.07823457       5.34898403       3.21947838
C        7.44594971       3.87377320      -0.11049708
C        8.64933315       4.56552518      -0.02212880
C        7.34617735       4.66882741       3.24316506
C        8.58926405       5.35473734       3.27467565
C        9.92595075       3.88036560       0.14127310
C       11.10471476       4.62547990       0.23643590
C        9.84702244       4.61388749       3.48020144
C       11.04036248       5.34609111       3.54447089
C        3.74013766       5.98223761       0.13265841
C        4.94180941       6.72219118      -0.03880304
C       13.50287682       6.81507041       3.41190614
C        4.89974270       7.48465810       3.22136657
C        6.18262437       5.99162335      -0.11784179
C        7.37597920       6.75721588      -0.06450314
C        6.13465941       6.78088974       3.23443896
C        7.39325787       7.49512449       3.19493388
C        8.64251989       6.02324831      -0.02087165
C        9.87853500       6.76042038       0.06274806
C        8.61711954       6.79625162       3.22990435
C        9.86929421       7.49691013       3.36215160
C       11.12557260       6.04705824       0.12665762
C       12.32882786       6.71080486       0.10391750
C       11.05286693       6.79560283       3.49177313
C       12.25157378       7.52876483       3.47304406
64
Lattice="9.860000170089029 0.0 0.0 4.930000085044514 8.53900664730135 0.0 0.0 0.0 29.999997077512198" Properties=species:S:1:pos:R:3 energy=-16268.101774336435 pbc="T T T"
C        4.96173055       8.10797871       0.13087474
C        1.28064936       0.29531588       0.22463841
C        9.81806362       0.43426596       3.30329233
C        1.20281255       1.16225048       3.23396469
C        7.42041428       8.08053439       0.13190314
C        3.76102607       0.24993720       0.11177296
C        2.43145829       0.43711451       3.36695243
C        3.64358854       1.18557924       3.34942037
C        9.93646151       8.07722340       0.12183115
C        6.20420495       0.30125259       0.14534626
C        4.89444492       0.46457461       3.36668030
C        6.13060005       1.12885564       3.31118920
C       12.36451909       8.12645832       0.07748383
C        8.65957276       0.25113420       0.15537487
C        7.33459185       0.45483392       3.29086182
C        8.58770124       1.18071037       3.27806157
C        1.25778303       1.67755775       0.11725709
C        2.48849839       2.39079270       0.05053644
C       11.07334813       2.58922618       3.19355940
C        2.43075232       3.30951399       3.21623444
C        3.71250304       1.69507306       0.03889573
C        4.97483252       2.41884440       0.01841256
C        3.64482104       2.60497359       3.32277273
C        4.91301328       3.23106881       3.38022695
C        6.15130408       1.69767117       0.14237742
C        7.39078596       2.38465583       0.15847682
C        6.17156539       2.51299655       3.37945294
C        7.32679358       3.32515096       3.26908503
C        8.63371786       1.69343137       0.16468764
C        9.88222855       2.38258030       0.10095358
C        8.57982212       2.61005149       3.23050383
C        9.85148705       3.30312471       3.23869059
C        2.50474275       3.78791035      -0.07510165
C        3.70689862       4.53322086      -0.06075732
C       12.31066673       4.71162376       3.20037660
C        3.64481512       5.43158618       3.30100776
C        4.96684000       3.84984495      -0.00262572
C        6.20813613       4.52829776       0.14795325
C        4.88715050       4.70084382       3.38271956
C        6.11215199       5.44158225       3.37353201
C        7.45171485       3.76788370       0.17431692
C        8.69382147       4.51560597       0.12649197
C        7.34344810       4.74544257       3.36341269
C        8.58785407       5.44153492       3.33447951
C        9.89892153       3.82499874       0.01489452
C       11.13757025       4.53168566      -0.06585691
C        9.81594668       4.71521477       3.30456723
C       11.08403538       5.39842996       3.21586272
C        3.73343681       5.94838823       0.04991033
C        4.95743455       6.71258459       0.07005826
C       13.55063866       6.85405981       3.33657081
C        4.87369948       7.55531091       3.37097926
C        6.21426708       5.97890690       0.14215754
C        7.43076235       6.63420942       0.16871249
C        6.10844857       6.88903225       3.40034529
C        7.36816121       7.51885948       3.40420055
C        8.64678237       5.92929631       0.11778953
C        9.86566770       6.69178196       0.02640607
C        8.60390221       6.85119450       3.38349160
C        9.81548030       7.56118057       3.38938788
C       11.12150042       5.97855490      -0.08354773
C       12.40304409       6.68003771      -0.00142674
C       11.07621049       6.81135024       3.31627696
C       12.32076238       7.57780354       3.35164281
64
Lattice="9.860000170089029 0.0 0.0 4.930000085044514 8.53900664730135 0.0 0.0 0.0 29.999997077512198" Properties=species:S:1:pos:R:3 energy=-16267.31144173328 pbc="T T T"
C        4.97503761       7.99446546       0.18844728
C        1.28930841       0.22552285       0.15426759
C        9.83374989       0.53091861       3.34994492
C        1.19763802       1.24196562       3.35504944
C        7.45654329       8.07692957       0.22308645
C        3.71219048       0.21409709       0.06132723
C        2.41677675       0.51402350       3.42174938
C        3.68457360       1.16664508       3.39342259
C        9.88262591       8.00025427       0.13579882
C        6.16191541       0.18717731       0.16825301
C        4.90866403       0.45565329       3.39672470
C        6.12679310       1.21418014       3.37673454
C       12.35809826       8.01233375       0.09272837
C        8.68703384       0.19887325       0.09307544
C        7.33387010       0.48781562       3.31495671
C        8.59772788       1.21052504       3.28854472
C        1.27795068       1.62646126       0.06411958
C        2.48563505       2.37722041      -0.08015589
C       11.06086044       2.60832698       3.15492693
C        2.43731612       3.32162404       3.05338569
C        3.69482012       1.63365314       0.00099882
C        4.97985520       2.32091882       0.03838202
C        3.65714506       2.63088567       3.29273029
C        4.86824888       3.40674936       3.43912172
C        6.19522840       1.60583710       0.14835751
C        7.41641999       2.38277947       0.21048044
C        6.11871086       2.68339116       3.43780146
C        7.32324003       3.33218509       3.41228674
C        8.69438250       1.67704799       0.14748292
C        9.90093988       2.33339468       0.02139916
C        8.58648255       2.61635598       3.28091999
C        9.82413836       3.31509672       3.17549193
C        2.53486012       3.78401861      -0.21494307
C        3.76054392       4.51929558      -0.11648506
C       12.30251843       4.78372304       2.95424240
C        3.64637300       5.48385010       3.17898533
C        4.99197216       3.78849603       0.02136662
C        6.15443561       4.46429354       0.17274227
C        4.89352104       4.77524541       3.35722160
C        6.16709289       5.46623817       3.53762608
C        7.41872230       3.79417737       0.22759148
C        8.67680607       4.51628434       0.14124056
C        7.35352502       4.74228244       3.40534234
C        8.60146285       5.43515156       3.44169518
C        9.86256673       3.79071946      -0.02960169
C       11.13796761       4.48782641      -0.26108689
C        9.78680840       4.75072556       3.19212773
C       11.03942085       5.53333645       3.05890926
C        3.71226443       5.92784098      -0.03982750
C        4.95592696       6.60848369       0.16798679
C       13.53652801       6.90902438       3.32243650
C        4.89318679       7.65314282       3.43672672
C        6.20478866       5.90766150       0.21512055
C        7.46670599       6.61910587       0.26352921
C        6.14495522       6.93781460       3.58860129
C        7.36771061       7.61917413       3.58478646
C        8.68379779       5.90252444       0.18196532
C        9.91817614       6.58036889       0.06515784
C        8.61171626       6.88226138       3.50665877
C        9.78613989       7.61232242       3.37738431
C       11.09719158       5.89023494      -0.16095760
C       12.36079399       6.60718118      -0.05506514
C       11.04431536       6.91391199       3.22854169
C       12.30329046       7.57296820       3.23814435
