2
Lattice="2.337000013479661 0.0 0.0 -1.1685000067398306 2.0239004366737237 0.0 0.0 -0.0 40.00000108771735" Properties=species:S:1:pos:R:3:forces:R:3 energy=-507.9378846190266 free_energy=-507.9378846190266 stress="-0.0448804623885644 -0.0 -0.0 -0.0 -0.0448804623885644 -0.0 -0.0 -0.0 1.0099733767193969e-05" pbc="T T T"
C        0.00000000       0.00000000      20.00000008       0.00000000       0.00000000       0.00000000
C        1.16850001       0.67463371      20.00000008       0.00000000       0.00000000       0.00000000
2
Lattice="2.361599874364392 0.0 0.0 -1.1685007250365063 2.0239005387297815 0.0 0.0 -0.0 39.99999698242566" Properties=species:S:1:pos:R:3:forces:R:3 energy=-508.0178854073068 free_energy=-508.0178854073068 stress="-0.036648261210686116 0.0019272128343036491 -0.0 0.0019272128343036491 -0.04283297090666962 -0.0 -0.0 -0.0 1.0099733767193969e-05" pbc="T T T"
C        0.00000000       0.00000000      19.99999896       0.16611615       0.23576785       0.00000000
C        1.18489991       0.67463375      19.99999896      -0.16611615      -0.23576785       0.00000000
2
Lattice="2.435399986195794 0.0 0.0 -1.1685000425767695 2.0239001921282354 0.0 0.0 -0.0 40.0000005810741" Properties=species:S:1:pos:R:3:forces:R:3 energy=-508.1538040928045 free_energy=-508.1538040928045 stress="-0.014461900597006564 0.006484029078538528 -0.0 0.006484029078538528 -0.03787216531174698 -0.0 -0.0 -0.0 1.0099733767193969e-05" pbc="T T T"
C        0.00000000       0.00000000      19.99999980       0.41453408       0.83323309       0.00000000
C        1.23409998       0.67463380      19.99999980      -0.41453408      -0.83323309       0.00000000
2
Lattice="2.435399986195794 0.0 0.0 -1.1807988125070583 2.045205071207476 0.0 0.0 -0.0 40.0000005810741" Properties=species:S:1:pos:R:3:forces:R:3 energy=-508.2308622420335 free_energy=-508.2308622420335 stress="-0.013103027326511375 0.004771665126191551 -0.0 0.004771665126191551 -0.029964073772034104 -0.0 -0.0 -0.0 1.0099733767193969e-05" pbc="T T T"
C        0.00000000       0.00000000      19.99999980       0.29551823       0.55827160       0.00000000
C        1.22999998       0.68173519      19.99999980      -0.29551823      -0.55827160       0.00000000
2
Lattice="2.435399986195794 0.0 0.0 -1.1931000178373332 2.066509950286717 0.0 0.0 -0.0 40.0000005810741" Properties=species:S:1:pos:R:3:forces:R:3 energy=-508.2900532605594 free_energy=-508.2900532605594 stress="-0.01182219745330814 0.003146526147288521 -0.0 0.003146526147288521 -0.02257657760013932 -0.0 -0.0 -0.0 1.0099733767193969e-05" pbc="T T T"
C        0.00000000       0.00000000      19.99999980       0.19332510       0.32501752       0.00000000
C        1.22589998       0.68883657      19.99999980      -0.19332510      -0.32501752       0.00000000
2
Lattice="2.435399986195794 0.0 0.0 -1.2053987877676218 2.0878148293659575 0.0 0.0 -0.0 40.0000005810741" Properties=species:S:1:pos:R:3:forces:R:3 energy=-508.3325363533349 free_energy=-508.3325363533349 stress="-0.01059921150986247 0.0016012668809078437 -0.0 0.0016012668809078437 -0.01569131364375863 -0.0 -0.0 -0.0 1.1017891382393419e-05" pbc="T T T"
C        0.00000000       0.00000000      19.99999980       0.10562117       0.13386114       0.00000000
C        1.22179999       0.69593795      19.99999980      -0.10562117      -0.13386114       0.00000000
2
Lattice="2.435399986195794 0.0 0.0 -1.217699993097897 2.1091172730452126 0.0 0.0 -0.0 40.0000005810741" Properties=species:S:1:pos:R:3:forces:R:3 energy=-508.35942487413087 free_energy=-508.35942487413087 stress="-0.009356026098882413 -0.0 -0.0 -0.0 -0.009356026098882413 -0.0 -0.0 -0.0 1.1017891382393419e-05" pbc="T T T"
C        0.00000000       0.00000000      19.99999980       0.00000000       0.00000000       0.00000000
C        1.21769999       0.70303933      19.99999980       0.00000000      -0.00000000       0.00000000
2
Lattice="2.4599998470805247 0.0 0.0 -1.1684999273632493 2.0239009141894777 0.0 0.0 -0.0 39.9999984935044" Properties=species:S:1:pos:R:3:forces:R:3 energy=-508.16785577931887 free_energy=-508.16785577931887 stress="-0.007952163105242452 0.007800667098734541 -0.0 0.007800667098734541 -0.03644902100818784 -0.0 -0.0 -0.0 1.0099733767193969e-05" pbc="T T T"
C        0.00000000       0.00000000      19.99999875       0.45549149       0.97623193       0.00000000
C        1.25049984       0.67463380      19.99999875      -0.45549149      -0.97623193       0.00000000
2
Lattice="2.4599998470805247 0.0 0.0 -1.1807999265986517 2.045204512865195 0.0 0.0 -0.0 39.9999984935044" Properties=species:S:1:pos:R:3:forces:R:3 energy=-508.2444269808335 free_energy=-508.2444269808335 stress="-0.006710814009492793 0.006103911825845955 -0.0 0.006103911825845955 -0.028651108382298892 -0.0 -0.0 -0.0 1.0099733767193969e-05" pbc="T T T"
C        0.00000000       0.00000000      19.99999875       0.34019989       0.69960077       0.00000000
C        1.24640000       0.68173508      19.99999875      -0.34019989      -0.69960077       0.00000000
2
Lattice="2.4599998470805247 0.0 0.0 -1.1930999258340544 2.0665105715407592 0.0 0.0 -0.0 39.9999984935044" Properties=species:S:1:pos:R:3:forces:R:3 energy=-508.3031826172176 free_energy=-508.3031826172176 stress="-0.005552099099111084 0.004488872580710119 -0.0 0.004488872580710119 -0.021357264287154447 -0.0 -0.0 -0.0 1.0099733767193969e-05" pbc="T T T"
C        0.00000000       0.00000000      19.99999875       0.24154923       0.46249184       0.00000000
C        1.24229992       0.68883661      19.99999875      -0.24154923      -0.46249184       0.00000000
2
Lattice="2.4599998470805247 0.0 0.0 -1.2053999250694571 2.0878141702164768 0.0 0.0 -0.0 39.9999984935044" Properties=species:S:1:pos:R:3:forces:R:3 energy=-508.34525386569834 free_energy=-508.34525386569834 stress="-0.004464082325099734 0.0029583038361726335 -0.0 0.0029583038361726335 -0.014546371097604914 -0.0 -0.0 -0.0 1.1017891382393419e-05" pbc="T T T"
C        0.00000000       0.00000000      19.99999875       0.15843292       0.26412686       0.00000000
C        1.23819984       0.69593789      19.99999875      -0.15843292      -0.26412686       0.00000000
2
Lattice="2.4599998470805247 0.0 0.0 -1.2176999243048596 2.1091177688921943 0.0 0.0 -0.0 39.9999984935044" Properties=species:S:1:pos:R:3:forces:R:3 energy=-508.3717328551671 free_energy=-508.3717328551671 stress="-0.0034293186927699523 0.0015066966465423002 -0.0 0.0015066966465423002 -0.0082028201341919 -0.0 -0.0 -0.0 1.1017891382393419e-05" pbc="T T T"
C        0.00000000       0.00000000      19.99999875       0.08837344       0.10496554       0.00000000
C        1.23410001       0.70303942      19.99999875      -0.08837344      -0.10496554       0.00000000
2
Lattice="2.361599874364392 0.0 0.0 -1.180799937182196 2.045204531196423 0.0 0.0 -0.0 39.99999698242566" Properties=species:S:1:pos:R:3:forces:R:3 energy=-508.0969762469104 free_energy=-508.0969762469104 stress="-0.034735738898225656 0.0 -0.0 0.0 -0.034735738898225656 -0.0 -0.0 -0.0 1.0099733767193969e-05" pbc="T T T"
C        0.00000000       0.00000000      19.99999896       0.00000000       0.00000000       0.00000000
C        1.18079994       0.68173508      19.99999896       0.00000000       0.00000000       0.00000000
2
Lattice="2.4599998470805247 0.0 0.0 -1.2299999235402623 2.1304213675679113 0.0 0.0 -0.0 39.9999984935044" Properties=species:S:1:pos:R:3:forces:R:3 energy=-508.3836695368705 free_energy=-508.3836695368705 stress="-0.0023716011200601837 -0.0 -0.0 -0.0 -0.0023716011200601837 -0.0 -0.0 -0.0 1.1017891382393419e-05" pbc="T T T"
C        0.00000000       0.00000000      19.99999875       0.00000000       0.00000000       0.00000000
C        1.22999992       0.71014070      19.99999875       0.00000000      -0.00000000       0.00000000
2
Lattice="2.4846002371424643 0.0 0.0 -1.1685000377273895 2.0239006919710345 0.0 0.0 -0.0 40.00000408439708" Properties=species:S:1:pos:R:3:forces:R:3 energy=-508.1678986372484 free_energy=-508.1678986372484 stress="-0.0018592691707788897 0.009030998303101808 -0.0 0.009030998303101808 -0.035113101678072633 -0.0 -0.0 -0.0 1.0099733767193969e-05" pbc="T T T"
C        0.00000000       0.00000000      20.00000179       0.47761815       1.09226839       0.00000000
C        1.26690015       0.67463381      20.00000179      -0.47761815      -1.09226839       0.00000000
2
Lattice="2.4846002371424643 0.0 0.0 -1.1808012935014818 2.045206139004531 0.0 0.0 -0.0 40.00000408439708" Properties=species:S:1:pos:R:3:forces:R:3 energy=-508.2440407152396 free_energy=-508.2440407152396 stress="-0.0007244263583923675 0.007348933552056411 -0.0 0.007348933552056411 -0.02742812243885322 -0.0 -0.0 -0.0 1.0099733767193969e-05" pbc="T T T"
C        0.00000000       0.00000000      20.00000179       0.36659175       0.81501091       0.00000000
C        1.26280006       0.68173530      20.00000179      -0.36659175      -0.81501091       0.00000000
2
Lattice="2.4846002371424643 0.0 0.0 -1.1931000646753371 2.0665091014377905 0.0 0.0 -0.0 40.00000408439708" Properties=species:S:1:pos:R:3:forces:R:3 energy=-508.3024329435921 free_energy=-508.3024329435921 stress="0.0003277822686262043 0.005745830355918169 -0.0 0.005745830355918169 -0.020237111996611115 -0.0 -0.0 -0.0 1.0099733767193969e-05" pbc="T T T"
C        0.00000000       0.00000000      20.00000179       0.27157637       0.57616236       0.00000000
C        1.25870022       0.68883678      20.00000179      -0.27157637      -0.57616236       0.00000000
2
Lattice="2.4846002371424643 0.0 0.0 -1.2054013204494294 2.087814548471287 0.0 0.0 -0.0 40.00000408439708" Properties=species:S:1:pos:R:3:forces:R:3 energy=-508.34419044481683 free_energy=-508.34419044481683 stress="0.0013037838135832214 0.004223525029917478 -0.0 0.004223525029917478 -0.013513443780505532 -0.0 -0.0 -0.0 1.1017891382393419e-05" pbc="T T T"
C        0.00000000       0.00000000      20.00000179       0.19178758       0.37397904       0.00000000
C        1.25460013       0.69593802      20.00000179      -0.19178758      -0.37397904       0.00000000
2
Lattice="2.4846002371424643 0.0 0.0 -1.2177000916232845 2.1091175109045466 0.0 0.0 -0.0 40.00000408439708" Properties=species:S:1:pos:R:3:forces:R:3 energy=-508.3703755513399 free_energy=-508.3703755513399 stress="0.0022164324830914765 0.002782935731669538 -0.0 0.002782935731669538 -0.0072369183230020775 -0.0 -0.0 -0.0 1.1017891382393419e-05" pbc="T T T"
C        0.00000000       0.00000000      20.00000179       0.12620260       0.20777753       0.00000000
C        1.25050004       0.70303950      20.00000179      -0.12620260      -0.20777753       0.00000000
2
Lattice="2.4846002371424643 0.0 0.0 -1.230001347397377 2.130422957938043 0.0 0.0 -0.0 40.00000408439708" Properties=species:S:1:pos:R:3:forces:R:3 energy=-508.38201984672367 free_energy=-508.38201984672367 stress="0.0030804187989941605 0.0014176353578679536 -0.0 0.0014176353578679536 -0.0013955995751031667 -0.0 -0.0 -0.0 1.1017891382393419e-05" pbc="T T T"
C        0.00000000       0.00000000      20.00000179       0.07244340       0.07833971       0.00000000
C        1.24640021       0.71014099      20.00000179      -0.07244340      -0.07833971       0.00000000
2
Lattice="2.4846002371424643 0.0 0.0 -1.2423001185712321 2.1517259203713026 0.0 0.0 -0.0 40.00000408439708" Properties=species:S:1:pos:R:3:forces:R:3 energy=-508.3801064782671 free_energy=-508.3801064782671 stress="0.0039682772128920305 -0.0 -0.0 -0.0 0.0039682772128920305 -0.0 -0.0 -0.0 1.1017891382393419e-05" pbc="T T T"
C        0.00000000       0.00000000      20.00000179       0.00000000       0.00000000       0.00000000
C        1.24230012       0.71724222      20.00000179       0.00000000      -0.00000000       0.00000000
2
Lattice="2.509200098027195 0.0 0.0 -1.1684993568498923 2.0239007254679513 0.0 0.0 -0.0 40.000001853884456" Properties=species:S:1:pos:R:3:forces:R:3 energy=-508.1548325470577 free_energy=-508.1548325470577 stress="0.003837898831533708 0.010178695322101122 -0.0 0.010178695322101122 -0.03385889837571018 -0.0 -0.0 -0.0 1.0099733767193969e-05" pbc="T T T"
C        0.00000000       0.00000000      20.00000068       0.48187821       1.18311086       0.00000000
C        1.28330003       0.67463383      20.00000068      -0.48187821      -1.18311086       0.00000000
2
Lattice="2.509200098027195 0.0 0.0 -1.1807994557304218 2.0452063435003005 0.0 0.0 -0.0 40.000001853884456" Properties=species:S:1:pos:R:3:forces:R:3 energy=-508.2305920329917 free_energy=-508.2305920329917 stress="0.004874498779093889 0.008514993723359714 -0.0 0.008514993723359714 -0.0262850162079299 -0.0 -0.0 -0.0 1.0099733767193969e-05" pbc="T T T"
C        0.00000000       0.00000000      20.00000068       0.37555127       0.90565001       0.00000000
C        1.27920000       0.68173511      20.00000068      -0.37555127      -0.90565001       0.00000000
2
Lattice="2.3861997352491233 0.0 0.0 -1.1685005345538784 2.0239006432465136 0.0 0.0 -0.0 39.99999501676676" Properties=species:S:1:pos:R:3:forces:R:3 energy=-508.07983130633517 free_energy=-508.07983130633517 stress="-0.028798931758346 0.0035596970741282744 -0.0 0.0035596970741282744 -0.04104072724180029 -0.0 -0.0 -0.0 9.181576151994517e-06" pbc="T T T"
C        0.00000000       0.00000000      19.99999775       0.27198543       0.46240853       0.00000000
C        1.20129980       0.67463379      19.99999775      -0.27198543      -0.46240853       0.00000000
2
Lattice="2.509200098027195 0.0 0.0 -1.193099554610951 2.0665094523325513 0.0 0.0 -0.0 40.000001853884456" Properties=species:S:1:pos:R:3:forces:R:3 energy=-508.2886854803494 free_energy=-508.2886854803494 stress="0.005831219014131717 0.006924744733834265 -0.0 0.006924744733834265 -0.019197757576205336 -0.0 -0.0 -0.0 1.0099733767193969e-05" pbc="T T T"
C        0.00000000       0.00000000      20.00000068       0.28453807       0.66616280       0.00000000
C        1.27509996       0.68883665      20.00000068      -0.28453807      -0.66616280       0.00000000
2
Lattice="2.509200098027195 0.0 0.0 -1.2053996534914804 2.0878150703649 0.0 0.0 -0.0 40.000001853884456" Properties=species:S:1:pos:R:3:forces:R:3 energy=-508.33019454163934 free_energy=-508.33019454163934 stress="0.006709895851877593 0.005410702826370369 -0.0 0.005410702826370369 -0.012568659594465294 -0.0 -0.0 -0.0 1.1017891382393419e-05" pbc="T T T"
C        0.00000000       0.00000000      20.00000068       0.20831232       0.46218742       0.00000000
C        1.27099993       0.69593794      20.00000068      -0.20831232      -0.46218742       0.00000000
2
Lattice="2.509200098027195 0.0 0.0 -1.2176997523720097 2.109118179197151 0.0 0.0 -0.0 40.000001853884456" Properties=species:S:1:pos:R:3:forces:R:3 energy=-508.3561769233527 free_energy=-508.3561769233527 stress="0.007520629026098708 0.003974704316198427 -0.0 0.003974704316198427 -0.006372932007099394 -0.0 -0.0 -0.0 1.1017891382393419e-05" pbc="T T T"
C        0.00000000       0.00000000      20.00000068       0.14592167       0.29219585       0.00000000
C        1.26690015       0.70303948      20.00000068      -0.14592167      -0.29219585       0.00000000
2
Lattice="2.509200098027195 0.0 0.0 -1.2422999501330683 2.151726906061751 0.0 0.0 -0.0 40.000001853884456" Properties=species:S:1:pos:R:3:forces:R:3 energy=-508.3655353264348 free_energy=-508.3655353264348 stress="0.008979581476650638 0.0013331648572696038 -0.0 0.0013331648572696038 0.004783601175189143 -0.0 -0.0 -0.0 1.1017891382393419e-05" pbc="T T T"
C        0.00000000       0.00000000      20.00000068       0.05776189       0.05373863       0.00000000
C        1.25870008       0.71724230      20.00000068      -0.05776189      -0.05373863       0.00000000
2
Lattice="2.509200098027195 0.0 0.0 -1.2546000490135976 2.173030014894002 0.0 0.0 -0.0 40.000001853884456" Properties=species:S:1:pos:R:3:forces:R:3 energy=-508.3508067567468 free_energy=-508.3508067567468 stress="0.009713189411195 0.0 -0.0 0.0 0.009713189411195 -0.0 -0.0 -0.0 1.1017891382393419e-05" pbc="T T T"
C        0.00000000       0.00000000      20.00000068       0.00000000       0.00000000       0.00000000
C        1.25460005       0.72434359      20.00000068       0.00000000      -0.00000000       0.00000000
2
Lattice="2.5337999589119264 0.0 0.0 -1.1684998580516186 2.0239005889804496 0.0 0.0 -0.0 40.000000282160414" Properties=species:S:1:pos:R:3:forces:R:3 energy=-508.12952541583513 free_energy=-508.12952541583513 stress="0.009161376684460128 0.011250185259038882 -0.0 0.011250185259038882 -0.03267814768256369 -0.0 -0.0 -0.0 1.0099733767193969e-05" pbc="T T T"
C        0.00000000       0.00000000      19.99999963       0.46889054       1.25067611       0.00000000
C        1.29970002       0.67463387      19.99999963      -0.46889054      -1.25067611       0.00000000
2
Lattice="2.5337999589119264 0.0 0.0 -1.1807989230521772 2.045204779034981 0.0 0.0 -0.0 40.000000282160414" Properties=species:S:1:pos:R:3:forces:R:3 energy=-508.2049488411783 free_energy=-508.2049488411783 stress="0.010105242712885166 0.009607601285447062 -0.0 0.009607601285447062 -0.025214444428607343 -0.0 -0.0 -0.0 1.1017891382393419e-05" pbc="T T T"
C        0.00000000       0.00000000      19.99999963       0.36801331       0.97317900       0.00000000
C        1.29560008       0.68173510      19.99999963      -0.36801331      -0.97317900       0.00000000
2
Lattice="2.5337999589119264 0.0 0.0 -1.1931005218526944 2.0665089690895124 0.0 0.0 -0.0 40.000000282160414" Properties=species:S:1:pos:R:3:forces:R:3 energy=-508.26277629725865 free_energy=-508.26277629725865 stress="0.010971983501633448 0.008030206502534405 -0.0 0.008030206502534405 -0.018230019449785112 -0.0 -0.0 -0.0 1.1017891382393419e-05" pbc="T T T"
C        0.00000000       0.00000000      19.99999963       0.28147049       0.73329559       0.00000000
C        1.29149988       0.68883658      19.99999963      -0.28147049      -0.73329559       0.00000000
2
Lattice="2.5337999589119264 0.0 0.0 -1.205399586853253 2.0878131591440434 0.0 0.0 -0.0 40.000000282160414" Properties=species:S:1:pos:R:3:forces:R:3 energy=-508.30409093321106 free_energy=-508.30409093321106 stress="0.011764353523550576 0.006525346171222503 -0.0 0.006525346171222503 -0.011697328017641015 -0.0 -0.0 -0.0 1.1017891382393419e-05" pbc="T T T"
C        0.00000000       0.00000000      19.99999963       0.20900138       0.52853473       0.00000000
C        1.28739994       0.69593806      19.99999963      -0.20900138      -0.52853473       0.00000000
2
Lattice="2.3861997352491233 0.0 0.0 -1.1807990079893524 2.045204634482818 0.0 0.0 -0.0 39.99999501676676" Properties=species:S:1:pos:R:3:forces:R:3 energy=-508.158120906741 free_energy=-508.158120906741 stress="-0.02714624805098699 0.001811524974788518 -0.0 0.001811524974788518 -0.03294257707574113 -0.0 -0.0 -0.0 1.0099733767193969e-05" pbc="T T T"
C        0.00000000       0.00000000      19.99999775       0.14434456       0.19905249       0.00000000
C        1.19719984       0.68173512      19.99999775      -0.14434456      -0.19905249       0.00000000
2
Lattice="2.5337999589119264 0.0 0.0 -1.2177011856537703 2.1091173491985753 0.0 0.0 -0.0 40.000000282160414" Properties=species:S:1:pos:R:3:forces:R:3 energy=-508.32993916280185 free_energy=-508.32993916280185 stress="0.012486025409097344 0.005095774764356957 -0.0 0.005095774764356957 -0.005588825403719062 -0.0 -0.0 -0.0 1.1017891382393419e-05" pbc="T T T"
C        0.00000000       0.00000000      19.99999963       0.14990997       0.35683929       0.00000000
C        1.28330000       0.70303929      19.99999963      -0.14990997      -0.35683929       0.00000000
2
Lattice="2.5337999589119264 0.0 0.0 -1.2300002506543288 2.1304215392531067 0.0 0.0 -0.0 40.000000282160414" Properties=species:S:1:pos:R:3:forces:R:3 energy=-508.3412954256873 free_energy=-508.3412954256873 stress="0.01314434441919535 0.0037414922819377656 -0.0 0.0037414922819377656 0.00011660601713033036 -0.0 -0.0 -0.0 1.1017891382393419e-05" pbc="T T T"
C        0.00000000       0.00000000      19.99999963       0.10359000       0.21684478       0.00000000
C        1.27920006       0.71014077      19.99999963      -0.10359000      -0.21684478       0.00000000
2
Lattice="2.5337999589119264 0.0 0.0 -1.2422993156548872 2.151725729307638 0.0 0.0 -0.0 40.000000282160414" Properties=species:S:1:pos:R:3:forces:R:3 energy=-508.339111848189 free_energy=-508.339111848189 stress="0.013750328445226988 0.0024624987239649297 -0.0 0.0024624987239649297 0.005435493081980754 -0.0 -0.0 -0.0 1.1017891382393419e-05" pbc="T T T"
C        0.00000000       0.00000000      19.99999963       0.06908066       0.10804650       0.00000000
C        1.27509986       0.71724225      19.99999963      -0.06908066      -0.10804650       0.00000000
2
Lattice="2.5337999589119264 0.0 0.0 -1.2546009144554047 2.1730299193621696 0.0 0.0 -0.0 40.000000282160414" Properties=species:S:1:pos:R:3:forces:R:3 energy=-508.3242974265849 free_energy=-508.3242974265849 stress="0.014315913536189852 0.0012551214599776505 -0.0 0.0012551214599776505 0.0103797718398298 -0.0 -0.0 -0.0 1.1017891382393419e-05" pbc="T T T"
C        0.00000000       0.00000000      19.99999963       0.04415818       0.03112063       0.00000000
C        1.27099992       0.72434373      19.99999963      -0.04415818      -0.03112063       0.00000000
2
Lattice="2.5337999589119264 0.0 0.0 -1.2668999794559632 2.194334109416701 0.0 0.0 -0.0 40.000000282160414" Properties=species:S:1:pos:R:3:forces:R:3 energy=-508.2977274150371 free_energy=-508.2977274150371 stress="0.014908125197993498 -0.0 -0.0 -0.0 0.014908125197993498 -0.0 -0.0 -0.0 1.1017891382393419e-05" pbc="T T T"
C        0.00000000       0.00000000      19.99999963       0.00000000      -0.00000000       0.00000000
C        1.26689998       0.73144496      19.99999963       0.00000000       0.00000000       0.00000000
2
Lattice="2.5583998197966573 0.0 0.0 -1.168500508095547 2.0239014878445594 0.0 0.0 -0.0 39.99999786736182" Properties=species:S:1:pos:R:3:forces:R:3 energy=-508.09278392505513 free_energy=-508.09278392505513 stress="0.014127691225073962 0.012246386271530288 -0.0 0.012246386271530288 -0.031564422495326754 -0.0 -0.0 -0.0 1.1017891382393419e-05" pbc="T T T"
C        0.00000000       0.00000000      19.99999868       0.43890145       1.29657878       0.00000000
C        1.31609997       0.67463366      19.99999868      -0.43890145      -1.29657878       0.00000000
2
Lattice="2.5583998197966573 0.0 0.0 -1.1807987360293097 2.045205283144006 0.0 0.0 -0.0 39.99999786736182" Properties=species:S:1:pos:R:3:forces:R:3 energy=-508.16790258289916 free_energy=-508.16790258289916 stress="0.01498616859528545 0.010628592553548854 -0.0 0.010628592553548854 -0.024209979997579144 -0.0 -0.0 -0.0 1.1017891382393419e-05" pbc="T T T"
C        0.00000000       0.00000000      19.99999868       0.34446406       1.01925111       0.00000000
C        1.31199987       0.68173526      19.99999868      -0.34446406      -1.01925111       0.00000000
2
Lattice="2.5583998197966573 0.0 0.0 -1.193099522362892 2.066509078443453 0.0 0.0 -0.0 39.99999786736182" Properties=species:S:1:pos:R:3:forces:R:3 energy=-508.22550976282713 free_energy=-508.22550976282713 stress="0.015769357041050584 0.009068642765324986 -0.0 0.009068642765324986 -0.01732747051404405 -0.0 -0.0 -0.0 1.1017891382393419e-05" pbc="T T T"
C        0.00000000       0.00000000      19.99999868       0.26308067       0.77917153       0.00000000
C        1.30789978       0.68883662      19.99999868      -0.26308067      -0.77917153       0.00000000
2
Lattice="2.5583998197966573 0.0 0.0 -1.2054003086964744 2.0878128737429 0.0 0.0 -0.0 39.99999786736182" Properties=species:S:1:pos:R:3:forces:R:3 energy=-508.2666789539326 free_energy=-508.2666789539326 stress="0.016480929192830156 0.007573882167780277 -0.0 0.007573882167780277 -0.010889349316265496 -0.0 -0.0 -0.0 1.1017891382393419e-05" pbc="T T T"
C        0.00000000       0.00000000      19.99999868       0.19481994       0.57397153       0.00000000
C        1.30379995       0.69593797      19.99999868      -0.19481994      -0.57397153       0.00000000
2
Lattice="2.5583998197966573 0.0 0.0 -1.2177010950300566 2.109119227442166 0.0 0.0 -0.0 39.99999786736182" Properties=species:S:1:pos:R:3:forces:R:3 energy=-508.2924312633954 free_energy=-508.2924312633954 stress="0.017123639523469774 0.006150737864221126 -0.0 0.006150737864221126 -0.004870826148633091 -0.0 -0.0 -0.0 1.1017891382393419e-05" pbc="T T T"
C        0.00000000       0.00000000      19.99999868       0.13938105       0.40153818       0.00000000
C        1.29969986       0.70303932      19.99999868      -0.13938105      -0.40153818       0.00000000
2
Lattice="2.3861997352491233 0.0 0.0 -1.1930998676245617 2.066508625719122 0.0 0.0 -0.0 39.99999501676676" Properties=species:S:1:pos:R:3:forces:R:3 energy=-508.2185041920509 free_energy=-508.2185041920509 stress="-0.025477955664169584 -0.0 -0.0 -0.0 -0.025477955664169584 0.0 -0.0 0.0 1.1017891382393419e-05" pbc="T T T"
C        0.00000000       0.00000000      19.99999775       0.00000000       0.00000000       0.00000000
C        1.19309987       0.68883645      19.99999775       0.00000000       0.00000000       0.00000000
2
Lattice="2.5583998197966573 0.0 0.0 -1.229999322963819 2.130423022741613 0.0 0.0 -0.0 39.99999786736182" Properties=species:S:1:pos:R:3:forces:R:3 energy=-508.3037546005064 free_energy=-508.3037546005064 stress="0.01770207882104543 0.004799209854647534 -0.0 0.004799209854647534 0.0007538074020787497 -0.0 -0.0 -0.0 1.1017891382393419e-05" pbc="T T T"
C        0.00000000       0.00000000      19.99999868       0.09622971       0.25975110       0.00000000
C        1.29560002       0.71014067      19.99999868      -0.09622971      -0.25975110       0.00000000
2
Lattice="2.5583998197966573 0.0 0.0 -1.2423001092974013 2.15172681804106 0.0 0.0 -0.0 39.99999786736182" Properties=species:S:1:pos:R:3:forces:R:3 energy=-508.3015670773575 free_energy=-508.3015670773575 stress="0.018222674188863516 0.0035220526119050964 -0.0 0.0035220526119050964 0.006004750803404415 -0.0 -0.0 -0.0 1.1017891382393419e-05" pbc="T T T"
C        0.00000000       0.00000000      19.99999868       0.06468227       0.14727356       0.00000000
C        1.29149993       0.71724227      19.99999868      -0.06468227      -0.14727356       0.00000000
2
Lattice="2.5583998197966573 0.0 0.0 -1.2546008956309838 2.1730306133405066 0.0 0.0 -0.0 39.99999786736182" Properties=species:S:1:pos:R:3:forces:R:3 energy=-508.2867663975022 free_energy=-508.2867663975022 stress="0.018694607203076037 0.002317429820763416 -0.0 0.002317429820763416 0.010896694577187092 -0.0 -0.0 -0.0 1.1017891382393419e-05" pbc="T T T"
C        0.00000000       0.00000000      19.99999868       0.04379591       0.06398165       0.00000000
C        1.28739984       0.72434362      19.99999868      -0.04379591      -0.06398165       0.00000000
2
Lattice="2.5583998197966573 0.0 0.0 -1.2668991235647464 2.1943344086399534 0.0 0.0 -0.0 39.99999786736182" Properties=species:S:1:pos:R:3:forces:R:3 energy=-508.26020659022333 free_energy=-508.26020659022333 stress="0.019130732070295774 0.001180750693146495 -0.0 0.001180750693146495 0.01544065661480918 -0.0 -0.0 -0.0 1.1017891382393419e-05" pbc="T T T"
C        0.00000000       0.00000000      19.99999868       0.03164745       0.01031244       0.00000000
C        1.28330000       0.73144497      19.99999868      -0.03164745      -0.01031244       0.00000000
2
Lattice="2.5583998197966573 0.0 0.0 -1.2791999098983287 2.2156382039394003 0.0 0.0 -0.0 39.99999786736182" Properties=species:S:1:pos:R:3:forces:R:3 energy=-508.22271311285033 free_energy=-508.22271311285033 stress="0.019594401665971498 0.0 -0.0 0.0 0.019594401665971498 -0.0 -0.0 -0.0 1.1017891382393419e-05" pbc="T T T"
C        0.00000000       0.00000000      19.99999868       0.00000000      -0.00000000       0.00000000
C        1.27919991       0.73854632      19.99999868       0.00000000       0.00000000       0.00000000
2
Lattice="2.583000209858597 0.0 0.0 -1.168500217936042 2.023902065434074 0.0 0.0 -0.0 40.000002876842736" Properties=species:S:1:pos:R:3:forces:R:3 energy=-508.04538740875205 free_energy=-508.04538740875205 stress="0.0187579600785248 0.013170052832420934 -0.0 0.013170052832420934 -0.030511295710692977 -0.0 -0.0 -0.0 1.1017891382393419e-05" pbc="T T T"
C        0.00000000       0.00000000      20.00000170       0.39187109       1.32224148       0.00000000
C        1.33250007       0.67463394      20.00000170      -0.39187109      -1.32224148       0.00000000
2
Lattice="2.583000209858597 0.0 0.0 -1.1808004649353887 2.045206651164988 0.0 0.0 -0.0 40.000002876842736" Properties=species:S:1:pos:R:3:forces:R:3 energy=-508.1202221158053 free_energy=-508.1202221158053 stress="0.019536557736213933 0.011580722000510683 -0.0 0.011580722000510683 -0.023265195811538904 -0.0 -0.0 -0.0 1.1017891382393419e-05" pbc="T T T"
C        0.00000000       0.00000000      20.00000170       0.30512001       1.04544243       0.00000000
C        1.32840007       0.68173538      20.00000170      -0.30512001      -1.04544243       0.00000000
2
Lattice="2.583000209858597 0.0 0.0 -1.1931007119347352 2.0665112368959013 0.0 0.0 -0.0 40.000002876842736" Properties=species:S:1:pos:R:3:forces:R:3 energy=-508.17764194535533 free_energy=-508.17764194535533 stress="0.02024170278468711 0.010041889837436403 -0.0 0.010041889837436403 -0.016482765508060555 -0.0 -0.0 -0.0 1.1017891382393419e-05" pbc="T T T"
C        0.00000000       0.00000000      20.00000170       0.22986639       0.80544923       0.00000000
C        1.32430007       0.68883656      20.00000170      -0.22986639      -0.80544923       0.00000000
2
Lattice="2.583000209858597 0.0 0.0 -1.205400958934082 2.0878132396266054 0.0 0.0 -0.0 40.000002876842736" Properties=species:S:1:pos:R:3:forces:R:3 energy=-508.21869439962416 free_energy=-508.21869439962416 stress="0.020876149696789935 0.008560901604119688 -0.0 0.008560901604119688 -0.010139214544647545 -0.0 -0.0 -0.0 1.1017891382393419e-05" pbc="T T T"
C        0.00000000       0.00000000      20.00000170       0.16651261       0.60004868       0.00000000
C        1.32020008       0.69593800      20.00000170      -0.16651261      -0.60004868       0.00000000
2
Lattice="2.583000209858597 0.0 0.0 -1.2177012059334285 2.109117825357519 0.0 0.0 -0.0 40.000002876842736" Properties=species:S:1:pos:R:3:forces:R:3 energy=-508.2444063001818 free_energy=-508.2444063001818 stress="0.021446325575828793 0.007145102561482133 -0.0 0.007145102561482133 -0.0042088345080742865 -0.0 -0.0 -0.0 1.1017891382393419e-05" pbc="T T T"
C        0.00000000       0.00000000      20.00000170       0.11507486       0.42706461       0.00000000
C        1.31610008       0.70303945      20.00000170      -0.11507486      -0.42706461       0.00000000
2
Lattice="2.4108001253110625 0.0 0.0 -1.1685003559375202 2.023900456400391 0.0 0.0 -0.0 40.00000291156152" Properties=species:S:1:pos:R:3:forces:R:3 energy=-508.12479757394533 free_energy=-508.12479757394533 stress="-0.021405926640760017 0.0050728208239769704 -0.0 0.0050728208239769704 -0.03939630695297807 -0.0 -0.0 -0.0 9.181576151994517e-06" pbc="T T T"
C        0.00000000       0.00000000      20.00000097       0.35379254       0.66195133       0.00000000
C        1.21769996       0.67463373      20.00000097      -0.35379254      -0.66195133       0.00000000
2
Lattice="2.583000209858597 0.0 0.0 -1.2299988699325652 2.130422411088433 0.0 0.0 -0.0 40.000002876842736" Properties=species:S:1:pos:R:3:forces:R:3 energy=-508.25573956944794 free_energy=-508.25573956944794 stress="0.02195314857941889 0.005797247182369338 -0.0 0.005797247182369338 0.0013331648572696038 -0.0 -0.0 -0.0 1.1017891382393419e-05" pbc="T T T"
C        0.00000000       0.00000000      20.00000170       0.07531610       0.28447868       0.00000000
C        1.31200009       0.71014089      20.00000170      -0.07531610      -0.28447868       0.00000000
2
Lattice="2.583000209858597 0.0 0.0 -1.242299116931912 2.1517269968193466 0.0 0.0 -0.0 40.000002876842736" Properties=species:S:1:pos:R:3:forces:R:3 energy=-508.2536087820344 free_energy=-508.2536087820344 stress="0.022400291338021024 0.004520089939626901 -0.0 0.004520089939626901 0.006508819334148912 -0.0 -0.0 -0.0 1.1017891382393419e-05" pbc="T T T"
C        0.00000000       0.00000000      20.00000170       0.04676271       0.17020060       0.00000000
C        1.30790009       0.71724233      20.00000170      -0.04676271      -0.17020060       0.00000000
2
Lattice="2.583000209858597 0.0 0.0 -1.2545993639312585 2.17303158255026 0.0 0.0 -0.0 40.000002876842736" Properties=species:S:1:pos:R:3:forces:R:3 energy=-508.2388972194613 free_energy=-508.2388972194613 stress="0.022795099112556786 0.00331546714848522 -0.0 0.00331546714848522 0.01133741023248283 -0.0 -0.0 -0.0 1.1017891382393419e-05" pbc="T T T"
C        0.00000000       0.00000000      20.00000170       0.02880073       0.08331120       0.00000000
C        1.30380009       0.72434377      20.00000170      -0.02880073      -0.08331120       0.00000000
2
Lattice="2.583000209858597 0.0 0.0 -1.2668996109306052 2.1943361682811737 0.0 0.0 -0.0 40.000002876842736" Properties=species:S:1:pos:R:3:forces:R:3 energy=-508.2124386385304 free_energy=-508.2124386385304 stress="0.023145835321562978 0.002180624336098698 -0.0 0.002180624336098698 0.015831791758884144 -0.0 -0.0 -0.0 1.1017891382393419e-05" pbc="T T T"
C        0.00000000       0.00000000      20.00000170       0.02058117       0.02347211       0.00000000
C        1.29970010       0.73144522      20.00000170      -0.02058117      -0.02347211       0.00000000
2
Lattice="2.583000209858597 0.0 0.0 -1.279199857929952 2.2156407540120875 0.0 0.0 -0.0 40.000002876842736" Properties=species:S:1:pos:R:3:forces:R:3 energy=-508.1750438024239 free_energy=-508.1750438024239 stress="0.02346351785642199 0.0011109707143913364 -0.0 0.0011109707143913364 0.020002981804735254 -0.0 -0.0 -0.0 1.1017891382393419e-05" pbc="T T T"
C        0.00000000       0.00000000      20.00000170       0.02010654      -0.00881503       0.00000000
C        1.29560010       0.73854640      20.00000170      -0.02010654       0.00881503       0.00000000
2
Lattice="2.583000209858597 0.0 0.0 -1.2915001049292985 2.2369427567427915 0.0 0.0 -0.0 40.000002876842736" Properties=species:S:1:pos:R:3:forces:R:3 energy=-508.12749422208645 free_energy=-508.12749422208645 stress="0.02380966327735218 -0.0 -0.0 -0.0 0.02380966327735218 0.0 -0.0 0.0 1.1017891382393419e-05" pbc="T T T"
C        0.00000000       0.00000000      20.00000170       0.00000000       0.00000000       0.00000000
C        1.29150010       0.74564784      20.00000170       0.00000000      -0.00000000       0.00000000
2
Lattice="2.4108001253110625 0.0 0.0 -1.180800258176857 2.045204697107765 0.0 0.0 -0.0 40.00000291156152" Properties=species:S:1:pos:R:3:forces:R:3 energy=-508.20241546134037 free_energy=-508.20241546134037 stress="-0.01991300235844571 0.0033457663497868015 -0.0 0.0033457663497868015 -0.031386299917978054 -0.0 -0.0 -0.0 1.0099733767193969e-05" pbc="T T T"
C        0.00000000       0.00000000      20.00000097       0.23110592       0.39102648       0.00000000
C        1.21360016       0.68173522      20.00000097      -0.23110592      -0.39102648       0.00000000
2
Lattice="2.4108001253110625 0.0 0.0 -1.1931001604161942 2.066508937815139 0.0 0.0 -0.0 40.00000291156152" Properties=species:S:1:pos:R:3:forces:R:3 energy=-508.2621396869331 free_energy=-508.2621396869331 stress="-0.01848526726681056 0.0017031823761949829 -0.0 0.0017031823761949829 -0.023917087718330517 -0.0 -0.0 -0.0 1.0099733767193969e-05" pbc="T T T"
C        0.00000000       0.00000000      20.00000097       0.12424342       0.16515790       0.00000000
C        1.20950011       0.68883671      20.00000097      -0.12424342      -0.16515790       0.00000000
2
Lattice="2.4108001253110625 0.0 0.0 -1.2054000626555312 2.087813178522513 0.0 0.0 -0.0 40.00000291156152" Properties=species:S:1:pos:R:3:forces:R:3 energy=-508.30514931998647 free_energy=-508.30514931998647 stress="-0.017039169022871423 -0.0 -0.0 -0.0 -0.017039169022871423 0.0 -0.0 0.0 1.1017891382393419e-05" pbc="T T T"
C        0.00000000       0.00000000      20.00000097       0.00000000       0.00000000       0.00000000
C        1.20540006       0.69593797      20.00000097       0.00000000      -0.00000000       0.00000000
