4
Lattice="2.4354514 0.0 0.0 1.2177257 2.109162782082376 0.0 0.0 0.0 20.0" Properties=species:S:1:pos:R:3:tags:I:1:mol-id:I:1 source_hdf5=16ea7b8aadbd11eb8fe73417ebe66c95.hdf5 bilayer_a=2.4354514 bilayer_d=3.4380643400000004 dft_match_rmse_eV=0.016358491642617788 tb_band_indices="1 0" pbc="T T T"
C        0.00000000       0.00000000       8.28096783        0        1
C        2.43545140       1.40610852       8.28096783        0        1
C        2.43545140       1.40610852      11.71903217        1        2
C        1.21772570       0.70305426      11.71903217        1        2
