4
Lattice="2.4299997327845455 0.0 0.0 1.2149998663922728 2.1044405185847364 0.0 0.0 0.0 43.4079940466304" Properties=species:S:1:pos:R:3:forces:R:3 energy=-1016.8209697180877 pbc="T T T"
C        0.00000000       0.00000000      19.99999786       0.00000000      -0.00000000      -0.00370213
C        1.21499987       0.70148042      19.99999786       0.00000000       0.00000000       0.00773414
C        1.21499987       0.70148042      23.40799740       0.00000000       0.00000000      -0.00773414
C        2.42999973       1.40296107      23.40799740       0.00000000      -0.00000000       0.00370213
4
Lattice="2.437777579392926 0.0 0.0 1.218888789696463 2.1111763281937588 0.0 0.0 0.0 43.407996371928185" Properties=species:S:1:pos:R:3:forces:R:3 energy=-1016.8467383543808 pbc="T T T"
C        0.00000000       0.00000000      19.99999848      -0.00000000       0.00000000      -0.00475346
C        1.21888879       0.70372569      19.99999848       0.00000000       0.00000000       0.00722891
C        1.21888879       0.70372569      23.40799813       0.00000000       0.00000000      -0.00722891
C        2.43777758       1.40745162      23.40799813       0.00000000       0.00000000       0.00475346
4
Lattice="2.4455554260013064 0.0 0.0 1.2227777130006532 2.1179121378027816 0.0 0.0 0.0 43.40799742266668" Properties=species:S:1:pos:R:3:forces:R:3 energy=-1016.8665266087849 pbc="T T T"
C        0.00000000       0.00000000      19.99999903       0.00000000       0.00000000      -0.00524479
C        1.22277771       0.70597096      19.99999903       0.00000000       0.00000000       0.00719986
C        1.22277771       0.70597096      23.40799888       0.00000000       0.00000000      -0.00719986
C        2.44555543       1.41194216      23.40799888       0.00000000       0.00000000       0.00524479
4
Lattice="2.453333272609687 0.0 0.0 1.2266666363048435 2.1246479474118045 0.0 0.0 0.0 43.407998285587496" Properties=species:S:1:pos:R:3:forces:R:3 energy=-1016.8804863208217 pbc="T T T"
C        0.00000000       0.00000000      19.99999947       0.00000000       0.00000000      -0.00558546
C        1.22666664       0.70821623      19.99999947       0.00000000       0.00000000       0.00708776
C        1.22666664       0.70821623      23.40799930       0.00000000      -0.00000000      -0.00708776
C        2.45333327       1.41643270      23.40799930       0.00000000       0.00000000       0.00558546
4
Lattice="2.4611111192180672 0.0 0.0 1.2305555596090336 2.131383757020827 0.0 0.0 0.0 43.40799995409805" Properties=species:S:1:pos:R:3:forces:R:3 energy=-1016.8887715069242 pbc="T T T"
C        0.00000000       0.00000000      19.99999998       0.00000000       0.00000000      -0.00632620
C        1.23055556       0.71046150      19.99999998       0.00000000       0.00000000       0.00678206
C        1.23055556       0.71046150      23.40799997       0.00000000      -0.00000000      -0.00678206
C        2.46111112       1.42092324      23.40799997       0.00000000       0.00000000       0.00632620
4
Lattice="2.4688889658264475 0.0 0.0 1.2344444829132237 2.1381195666298494 0.0 0.0 0.0 43.40800085938267" Properties=species:S:1:pos:R:3:forces:R:3 energy=-1016.8915214893776 pbc="T T T"
C        0.00000000       0.00000000      20.00000067       0.00000000       0.00000000      -0.00701474
C        1.23444448       0.71270677      20.00000067       0.00000000      -0.00000000       0.00648612
C        1.23444448       0.71270677      23.40800068       0.00000000      -0.00000000      -0.00648612
C        2.46888897       1.42541379      23.40800068       0.00000000       0.00000000       0.00701474
4
Lattice="2.4766668124348277 0.0 0.0 1.2383334062174138 2.144855376238872 0.0 0.0 0.0 43.408001784846924" Properties=species:S:1:pos:R:3:forces:R:3 energy=-1016.8888749101828 pbc="T T T"
C        0.00000000       0.00000000      20.00000112       0.00000000       0.00000000      -0.00768040
C        1.23833341       0.71495204      20.00000112       0.00000000      -0.00000000       0.00630023
C        1.23833341       0.71495204      23.40800140       0.00000000      -0.00000000      -0.00630023
C        2.47666681       1.42990433      23.40800140       0.00000000       0.00000000       0.00768040
4
Lattice="2.484444659043208 0.0 0.0 1.242222329521604 2.151591185847894 0.0 0.0 0.0 43.40800342056225" Properties=species:S:1:pos:R:3:forces:R:3 energy=-1016.8809425196721 pbc="T T T"
C        0.00000000       0.00000000      20.00000161       0.00000000       0.00000000      -0.00828255
C        1.24222233       0.71719731      20.00000161       0.00000000       0.00000000       0.00610483
C        1.24222233       0.71719731      23.40800205       0.00000000      -0.00000000      -0.00610483
C        2.48444466       1.43439487      23.40800205       0.00000000       0.00000000       0.00828255
4
Lattice="2.4922219764743803 0.0 0.0 1.2461109882371901 2.1583265371762255 0.0 0.0 0.0 43.40799465415918" Properties=species:S:1:pos:R:3:forces:R:3 energy=-1016.8678669054972 pbc="T T T"
C        0.00000000       0.00000000      19.99999812       0.00000000       0.00000000      -0.00880320
C        1.24611099       0.71944243      19.99999812       0.00000000       0.00000000       0.00587934
C        1.24611099       0.71944243      23.40799778       0.00000000      -0.00000000      -0.00587934
C        2.49222198       1.43888511      23.40799778       0.00000000       0.00000000       0.00880320
4
Lattice="2.4999998230827605 0.0 0.0 1.2499999115413802 2.165062346785248 0.0 0.0 0.0 43.40799692815058" Properties=species:S:1:pos:R:3:forces:R:3 energy=-1016.849772151568 pbc="T T T"
C        0.00000000       0.00000000      19.99999858       0.00000000      -0.00000000      -0.00932153
C        1.24999991       0.72168770      19.99999858      -0.00000000       0.00000000       0.00567365
C        1.24999991       0.72168770      23.40799834       0.00000000       0.00000000      -0.00567365
C        2.49999982       1.44337565      23.40799834      -0.00000000       0.00000000       0.00932153
