4
Lattice="2.444706096581899 0.0 0.0 1.2223530482909495 2.1385628862252375 0.0 0.0 0.0 43.39090271056878" Properties=species:S:1:pos:R:3:forces:R:3 energy=-1034.084382808248 pbc="T T T"
C        0.00000000       0.00000000      20.00000074       0.00000000      -0.11764417      -0.04628166
C        1.22235305       0.71285430      20.00000074       0.00000000       0.11861167      -0.03326776
C        1.22235305       0.71285430      23.39090099       0.00000000      -0.11861167       0.03326776
C        2.44470610       1.42570884      23.39090099       0.00000000       0.11764417       0.04628166
4
Lattice="2.457052859207204 0.0 0.0 1.228526429603602 2.1385622964381885 0.0 0.0 0.0 43.39089746048581" Properties=species:S:1:pos:R:3:forces:R:3 energy=-1034.0910134061546 pbc="T T T"
C        0.00000000       0.00000000      19.99999896       0.00000000      -0.06120742      -0.04669432
C        1.22852643       0.71285443      19.99999896       0.00000000       0.06210551      -0.03354775
C        1.22852643       0.71285443      23.39089874       0.00000000      -0.06210551       0.03354775
C        2.45705286       1.42570861      23.39089874       0.00000000       0.06120742       0.04669432
4
Lattice="2.469400151009717 0.0 0.0 1.2347000755048585 2.1385622657781904 0.0 0.0 0.0 43.39090177305727" Properties=species:S:1:pos:R:3:forces:R:3 energy=-1034.0888212570703 pbc="T T T"
C        0.00000000       0.00000000      20.01695565       0.00000000       0.00000000      -0.05075512
C        1.23470008       0.71285434      20.01695565       0.00000000       0.00000000      -0.03594068
C        1.23470008       0.71285434      23.37394687       0.00000000       0.00000000       0.03594068
C        2.46940015       1.42570892      23.37394687       0.00000000       0.00000000       0.05075512
4
Lattice="2.469400151009717 0.0 0.0 1.2347000755048585 2.1385622657781904 0.0 0.0 0.0 43.39090177305727" Properties=species:S:1:pos:R:3:forces:R:3 energy=-1034.090238289885 pbc="T T T"
C        0.00000000       0.00000000      20.00847844      -0.00000000      -0.00000000      -0.04794876
C        1.23470008       0.71285434      20.00847844      -0.00000000       0.00000000      -0.03395373
C        1.23470008       0.71285434      23.38242407       0.00000000       0.00000000       0.03395373
C        2.46940015       1.42570892      23.38242407       0.00000000       0.00000000       0.04794876
4
Lattice="2.469400151009717 0.0 0.0 1.2347000755048585 2.1385622657781904 0.0 0.0 0.0 43.39090177305727" Properties=species:S:1:pos:R:3:forces:R:3 energy=-1034.0916082470058 pbc="T T T"
C        0.00000000       0.00000000      20.00000124       0.00000000       0.00000000      -0.04713655
C        1.23470008       0.71285434      20.00000124       0.00000000       0.00000000      -0.03387891
C        1.23470008       0.71285434      23.39090152       0.00000000       0.00000000       0.03387891
C        2.46940015       1.42570892      23.39090152       0.00000000       0.00000000       0.04713655
4
Lattice="2.469400151009717 0.0 0.0 1.2347000755048585 2.1385622657781904 0.0 0.0 0.0 43.39090177305727" Properties=species:S:1:pos:R:3:forces:R:3 energy=-1034.0929839185171 pbc="T T T"
C        0.00000000       0.00000000      19.99152404       0.00000000       0.00000000      -0.04725379
C        1.23470008       0.71285434      19.99152404       0.00000000       0.00000000      -0.03462427
C        1.23470008       0.71285434      23.39937872       0.00000000       0.00000000       0.03462427
C        2.46940015       1.42570892      23.39937872       0.00000000       0.00000000       0.04725379
4
Lattice="2.469400151009717 0.0 0.0 1.2347000755048585 2.1385622657781904 0.0 0.0 0.0 43.39090177305727" Properties=species:S:1:pos:R:3:forces:R:3 energy=-1034.094361630882 pbc="T T T"
C        0.00000000       0.00000000      19.98304683       0.00000000       0.00000000      -0.04648657
C        1.23470008       0.71285434      19.98304683      -0.00000000       0.00000000      -0.03450883
C        1.23470008       0.71285434      23.40785593       0.00000000       0.00000000       0.03450883
C        2.46940015       1.42570892      23.40785593       0.00000000       0.00000000       0.04648657
4
Lattice="2.444706096581899 0.0 0.0 1.2223530482909495 2.1385628862252375 0.0 0.0 0.0 43.39090271056878" Properties=species:S:1:pos:R:3:forces:R:3 energy=-1034.0816579963246 pbc="T T T"
C        0.00000000       0.00000000      20.01695526       0.00000000      -0.11731121      -0.04962718
C        1.22235305       0.71285430      20.01695526       0.00000000       0.11835302      -0.03502768
C        1.22235305       0.71285430      23.37394647       0.00000000      -0.11835302       0.03502768
C        2.44470610       1.42570884      23.37394647       0.00000000       0.11731121       0.04962718
4
Lattice="2.457052859207204 0.0 0.0 1.228526429603602 2.1385622964381885 0.0 0.0 0.0 43.39089746048581" Properties=species:S:1:pos:R:3:forces:R:3 energy=-1034.0896580071242 pbc="T T T"
C        0.00000000       0.00000000      20.00847604       0.00000000      -0.06100431      -0.04740986
C        1.22852643       0.71285443      20.00847604       0.00000000       0.06193119      -0.03349916
C        1.22852643       0.71285443      23.38242142       0.00000000      -0.06193119       0.03349916
C        2.45705286       1.42570861      23.38242142       0.00000000       0.06100431       0.04740986
4
Lattice="2.469400151009717 0.0 0.0 1.2347000755048585 2.1385622657781904 0.0 0.0 0.0 43.39090177305727" Properties=species:S:1:pos:R:3:forces:R:3 energy=-1034.0916082470058 pbc="T T T"
C        0.00000000       0.00000000      20.00000124       0.00000000       0.00000000      -0.04713655
C        1.23470008       0.71285434      20.00000124       0.00000000       0.00000000      -0.03387891
C        1.23470008       0.71285434      23.39090152       0.00000000       0.00000000       0.03387891
C        2.46940015       1.42570892      23.39090152       0.00000000       0.00000000       0.04713655
4
Lattice="2.481746913635022 0.0 0.0 1.240873456817511 2.13856350517683 0.0 0.0 0.0 43.39089778245151" Properties=species:S:1:pos:R:3:forces:R:3 energy=-1034.087747359806 pbc="T T T"
C        0.00000000       0.00000000      19.99152216       0.00000000       0.03776025      -0.04760063
C        1.24087346       0.71285425      19.99152216       0.00000000      -0.03708431      -0.03481891
C        1.24087346       0.71285425      23.39937637       0.00000000       0.03708431       0.03481891
C        2.48174691       1.42570876      23.39937637       0.00000000      -0.03776025       0.04760063
4
Lattice="2.4940942054375355 0.0 0.0 1.2470471027187677 2.13856357054662 0.0 0.0 0.0 43.3909041753313" Properties=species:S:1:pos:R:3:forces:R:3 energy=-1034.0782448724462 pbc="T T T"
C        0.00000000       0.00000000      19.98304716       0.00000000       0.08038477      -0.04696223
C        1.24704710       0.71285452      19.98304716       0.00000000      -0.07979753      -0.03478214
C        1.24704710       0.71285452      23.40785652       0.00000000       0.07979753       0.03478214
C        2.49409421       1.42570880      23.40785652       0.00000000      -0.08038477       0.04696223
4
Lattice="2.469400151009717 0.0 0.0 1.2347000755048585 2.1385622657781904 0.0 0.0 0.0 43.39090177305727" Properties=species:S:1:pos:R:3:forces:R:3 energy=-1034.0916082470058 pbc="T T T"
C        0.00000000       0.00000000      20.00000124       0.00000000       0.00000000      -0.04713655
C        1.23470008       0.71285434      20.00000124       0.00000000       0.00000000      -0.03387891
C        1.23470008       0.71285434      23.39090152       0.00000000       0.00000000       0.03387891
C        2.46940015       1.42570892      23.39090152       0.00000000       0.00000000       0.04713655
4
Lattice="2.469400151009717 0.0 0.0 1.2347000755048585 2.1385622657781904 0.0 0.0 0.0 43.39090177305727" Properties=species:S:1:pos:R:3:forces:R:3 energy=-1034.0916545063583 pbc="T T T"
C        0.00000000       0.01695441      20.00000124       0.00000000       0.00180517      -0.04674471
C        1.23470008       0.72980899      20.00000124       0.00000000       0.00092174      -0.03360869
C        1.23470008       0.69589993      23.39090152       0.00000000      -0.00092174       0.03360869
C        2.46940015       1.40875426      23.39090152       0.00000000      -0.00180517       0.04674471
4
Lattice="2.469400151009717 0.0 0.0 1.2347000755048585 2.1385622657781904 0.0 0.0 0.0 43.39090177305727" Properties=species:S:1:pos:R:3:forces:R:3 energy=-1034.0916187233886 pbc="T T T"
C        0.00000000       0.00847720      20.00000124       0.00000000       0.00099450      -0.04704707
C        1.23470008       0.72133179      20.00000124       0.00000000       0.00032139      -0.03378352
C        1.23470008       0.70437713      23.39090152       0.00000000      -0.00032139       0.03378352
C        2.46940015       1.41723147      23.39090152       0.00000000      -0.00099450       0.04704707
4
Lattice="2.469400151009717 0.0 0.0 1.2347000755048585 2.1385622657781904 0.0 0.0 0.0 43.39090177305727" Properties=species:S:1:pos:R:3:forces:R:3 energy=-1034.0916082470058 pbc="T T T"
C        0.00000000       0.00000000      20.00000124       0.00000000       0.00000000      -0.04713655
C        1.23470008       0.71285434      20.00000124       0.00000000       0.00000000      -0.03387891
C        1.23470008       0.71285434      23.39090152       0.00000000       0.00000000       0.03387891
C        2.46940015       1.42570892      23.39090152       0.00000000       0.00000000       0.04713655
4
Lattice="2.469400151009717 0.0 0.0 1.2347000755048585 2.1385622657781904 0.0 0.0 0.0 43.39090177305727" Properties=species:S:1:pos:R:3:forces:R:3 energy=-1034.0916187233886 pbc="T T T"
C        0.00000000      -0.00847720      20.00000124       0.00000000      -0.00136268      -0.04706919
C        1.23470008       0.70437713      20.00000124       0.00000000       0.00009230      -0.03377504
C        1.23470008       0.72133179      23.39090152       0.00000000      -0.00009230       0.03377504
C        2.46940015       1.43418612      23.39090152       0.00000000       0.00136268       0.04706919
4
Lattice="2.469400151009717 0.0 0.0 1.2347000755048585 2.1385622657781904 0.0 0.0 0.0 43.39090177305727" Properties=species:S:1:pos:R:3:forces:R:3 energy=-1034.0916524655047 pbc="T T T"
C        0.00000000      -0.01695441      20.00000124       0.00000000      -0.00295754      -0.04689461
C        1.23470008       0.69589993      20.00000124       0.00000000       0.00039081      -0.03347705
C        1.23470008       0.72980899      23.39090152       0.00000000      -0.00039081       0.03347705
C        2.46940015       1.44266333      23.39090152       0.00000000       0.00295754       0.04689461
4
Lattice="2.444706096581899 0.0 0.0 1.2223530482909495 2.1385628862252375 0.0 0.0 0.0 43.57700107275889" Properties=species:S:1:pos:R:3:forces:R:3 energy=-1034.0825973332956 pbc="T T T"
C        0.00000000       0.00000000      20.00000074       0.00000000      -0.09730597      -0.03658860
C        1.22235305       0.71285430      20.00000074       0.00000000       0.09730597      -0.03658860
C        0.00000000       0.00000000      23.57700082       0.00000000      -0.09730597       0.03658860
C        1.22235305       0.71285430      23.57700082       0.00000000       0.09730597       0.03658860
4
Lattice="2.457052859207204 0.0 0.0 1.228526429603602 2.1385622964381885 0.0 0.0 0.0 43.57699710109503" Properties=species:S:1:pos:R:3:forces:R:3 energy=-1034.0889759537874 pbc="T T T"
C        0.00000000       0.00000000      19.99999896       0.00000000      -0.03411622      -0.03685265
C        1.22852643       0.71285443      19.99999896       0.00000000       0.03411622      -0.03685265
C        0.00000000       0.00000000      23.57699863       0.00000000      -0.03411622       0.03685265
C        1.22852643       0.71285443      23.57699863       0.00000000       0.03411622       0.03685265
4
Lattice="2.469400151009717 0.0 0.0 1.2347000755048585 2.1385622657781904 0.0 0.0 0.0 43.57700317663782" Properties=species:S:1:pos:R:3:forces:R:3 energy=-1034.089528616994 pbc="T T T"
C        0.00000000       0.00000000      20.00000124       0.00000000       0.00000000      -0.04182234
C        1.23470008       0.71285434      20.00000124       0.00000000      -0.00000000      -0.04182234
C        0.00000000       0.00000000      23.57700144       0.00000000      -0.00000000       0.04182234
C        1.23470008       0.71285434      23.57700144       0.00000000       0.00000000       0.04182234
4
Lattice="2.481746913635022 0.0 0.0 1.240873456817511 2.13856350517683 0.0 0.0 0.0 43.57699902001118" Properties=species:S:1:pos:R:3:forces:R:3 energy=-1034.0842701531187 pbc="T T T"
C        0.00000000       0.00000000      19.99999931       0.00000000       0.03094425      -0.04218358
C        1.24087346       0.71285425      19.99999931       0.00000000      -0.03094425      -0.04218358
C        0.00000000       0.00000000      23.57699921       0.00000000       0.03094425       0.04218358
C        1.24087346       0.71285425      23.57699921       0.00000000      -0.03094425       0.04218358
4
Lattice="2.4940942054375355 0.0 0.0 1.2470471027187677 2.13856357054662 0.0 0.0 0.0 43.57700350856424" Properties=species:S:1:pos:R:3:forces:R:3 energy=-1034.0733518574566 pbc="T T T"
C        0.00000000       0.00000000      20.00000176       0.00000000       0.07370350      -0.04259084
C        1.24704710       0.71285452      20.00000176       0.00000000      -0.07370350      -0.04259084
C        0.00000000       0.00000000      23.57700199       0.00000000       0.07370350       0.04259084
C        1.24704710       0.71285452      23.57700199       0.00000000      -0.07370350       0.04259084
4
Lattice="2.481746913635022 0.0 0.0 1.240873456817511 2.13856350517683 0.0 0.0 0.0 43.39089778245151" Properties=species:S:1:pos:R:3:forces:R:3 energy=-1034.0863617561397 pbc="T T T"
C        0.00000000       0.00000000      19.99999931       0.00000000       0.03805978      -0.04758289
C        1.24087346       0.71285425      19.99999931       0.00000000      -0.03734836      -0.03416559
C        1.24087346       0.71285425      23.39089921       0.00000000       0.03734836       0.03416559
C        2.48174691       1.42570876      23.39089921       0.00000000      -0.03805978       0.04758289
4
Lattice="2.444706096581899 0.0 0.0 1.2223530482909495 2.1171765972923393 0.0 0.0 0.0 43.57700107275889" Properties=species:S:1:pos:R:3:forces:R:3 energy=-1034.0720406769249 pbc="T T T"
C        0.00000000       0.00000000      20.00000074       0.00000000      -0.00000000      -0.04019611
C        1.22235305       0.70572578      20.00000074       0.00000000      -0.00000000      -0.04019611
C        0.00000000       0.00000000      23.57700082       0.00000000       0.00000000       0.04019611
C        1.22235305       0.70572578      23.57700082       0.00000000       0.00000000       0.04019611
4
Lattice="2.457052859207204 0.0 0.0 1.228526429603602 2.127869202394919 0.0 0.0 0.0 43.57699710109503" Properties=species:S:1:pos:R:3:forces:R:3 energy=-1034.0877650472055 pbc="T T T"
C        0.00000000       0.00000000      19.99999896       0.00000000       0.00000000      -0.04096076
C        1.22852643       0.70928998      19.99999896       0.00000000       0.00000000      -0.04096076
C        0.00000000       0.00000000      23.57699863       0.00000000      -0.00000000       0.04096076
C        1.22852643       0.70928998      23.57699863       0.00000000      -0.00000000       0.04096076
4
Lattice="2.469400151009717 0.0 0.0 1.2347000755048585 2.1385622657781904 0.0 0.0 0.0 43.57700317663782" Properties=species:S:1:pos:R:3:forces:R:3 energy=-1034.089528616994 pbc="T T T"
C        0.00000000       0.00000000      20.00000124       0.00000000       0.00000000      -0.04182234
C        1.23470008       0.71285434      20.00000124       0.00000000      -0.00000000      -0.04182234
C        0.00000000       0.00000000      23.57700144       0.00000000      -0.00000000       0.04182234
C        1.23470008       0.71285434      23.57700144       0.00000000       0.00000000       0.04182234
4
Lattice="2.481746913635022 0.0 0.0 1.240873456817511 2.14925487088077 0.0 0.0 0.0 43.57699902001118" Properties=species:S:1:pos:R:3:forces:R:3 energy=-1034.0778681308366 pbc="T T T"
C        0.00000000       0.00000000      19.99999931       0.00000000      -0.00000000      -0.04260781
C        1.24087346       0.71641854      19.99999931       0.00000000       0.00000000      -0.04260781
C        0.00000000       0.00000000      23.57699921       0.00000000      -0.00000000       0.04260781
C        1.24087346       0.71641854      23.57699921       0.00000000      -0.00000000       0.04260781
4
Lattice="2.4940942054375355 0.0 0.0 1.2470471027187677 2.159947934264042 0.0 0.0 0.0 43.57700350856424" Properties=species:S:1:pos:R:3:forces:R:3 energy=-1034.0532807407174 pbc="T T T"
C        0.00000000       0.00000000      20.00000176       0.00000000      -0.00000000      -0.04354035
C        1.24704710       0.71998289      20.00000176       0.00000000      -0.00000000      -0.04354035
C        0.00000000       0.00000000      23.57700199       0.00000000       0.00000000       0.04354035
C        1.24704710       0.71998289      23.57700199       0.00000000       0.00000000       0.04354035
4
Lattice="2.469400151009717 0.0 0.0 1.2347000755048585 2.1385622657781904 0.0 0.0 0.0 43.57700317663782" Properties=species:S:1:pos:R:3:forces:R:3 energy=-1034.0865148201738 pbc="T T T"
C        0.00000000       0.00000000      20.01788612       0.00000000      -0.00000000      -0.03887791
C        1.23470008       0.71285434      20.01788612       0.00000000       0.00000000      -0.03887791
C        0.00000000       0.00000000      23.55911632       0.00000000       0.00000000       0.03887791
C        1.23470008       0.71285434      23.55911632       0.00000000       0.00000000       0.03887791
4
Lattice="2.469400151009717 0.0 0.0 1.2347000755048585 2.1385622657781904 0.0 0.0 0.0 43.57700317663782" Properties=species:S:1:pos:R:3:forces:R:3 energy=-1034.088003827099 pbc="T T T"
C        0.00000000       0.00000000      20.00894368       0.00000000       0.00000000      -0.04272248
C        1.23470008       0.71285434      20.00894368       0.00000000       0.00000000      -0.04272248
C        0.00000000       0.00000000      23.56805900       0.00000000       0.00000000       0.04272248
C        1.23470008       0.71285434      23.56805900       0.00000000      -0.00000000       0.04272248
4
Lattice="2.469400151009717 0.0 0.0 1.2347000755048585 2.1385622657781904 0.0 0.0 0.0 43.57700317663782" Properties=species:S:1:pos:R:3:forces:R:3 energy=-1034.089528616994 pbc="T T T"
C        0.00000000       0.00000000      20.00000124       0.00000000       0.00000000      -0.04182234
C        1.23470008       0.71285434      20.00000124       0.00000000      -0.00000000      -0.04182234
C        0.00000000       0.00000000      23.57700144       0.00000000      -0.00000000       0.04182234
C        1.23470008       0.71285434      23.57700144       0.00000000       0.00000000       0.04182234
4
Lattice="2.469400151009717 0.0 0.0 1.2347000755048585 2.1385622657781904 0.0 0.0 0.0 43.57700317663782" Properties=species:S:1:pos:R:3:forces:R:3 energy=-1034.0909934057875 pbc="T T T"
C        0.00000000       0.00000000      19.99105880       0.00000000       0.00000000      -0.03911136
C        1.23470008       0.71285434      19.99105880       0.00000000       0.00000000      -0.03911136
C        0.00000000       0.00000000      23.58594388       0.00000000       0.00000000       0.03911136
C        1.23470008       0.71285434      23.58594388       0.00000000       0.00000000       0.03911136
4
Lattice="2.469400151009717 0.0 0.0 1.2347000755048585 2.1385622657781904 0.0 0.0 0.0 43.57700317663782" Properties=species:S:1:pos:R:3:forces:R:3 energy=-1034.0923259472554 pbc="T T T"
C        0.00000000       0.00000000      19.98211612       0.00000000       0.00000000      -0.03466130
C        1.23470008       0.71285434      19.98211612       0.00000000       0.00000000      -0.03466130
C        0.00000000       0.00000000      23.59488657       0.00000000      -0.00000000       0.03466130
C        1.23470008       0.71285434      23.59488657       0.00000000      -0.00000000       0.03466130
4
Lattice="2.4940942054375355 0.0 0.0 1.2470471027187677 2.13856357054662 0.0 0.0 0.0 43.3909041753313" Properties=species:S:1:pos:R:3:forces:R:3 energy=-1034.0754529844617 pbc="T T T"
C        0.00000000       0.00000000      20.00000176       0.00000000       0.08111599      -0.04804286
C        1.24704710       0.71285452      20.00000176       0.00000000      -0.08043259      -0.03450420
C        1.24704710       0.71285452      23.39090191       0.00000000       0.08043259       0.03450420
C        2.49409421       1.42570880      23.39090191       0.00000000      -0.08111599       0.04804286
4
Lattice="2.444706096581899 0.0 0.0 1.2223530482909495 2.1385628862252375 0.0 0.0 0.0 43.57700107275889" Properties=species:S:1:pos:R:3:forces:R:3 energy=-1034.07992340666 pbc="T T T"
C        0.00000000       0.00000000      20.01788572       0.00000000      -0.09723861      -0.03774997
C        1.22235305       0.71285430      20.01788572       0.00000000       0.09723861      -0.03774997
C        0.00000000       0.00000000      23.55911584       0.00000000      -0.09723861       0.03774997
C        1.22235305       0.71285430      23.55911584       0.00000000       0.09723861       0.03774997
4
Lattice="2.457052859207204 0.0 0.0 1.228526429603602 2.1385622964381885 0.0 0.0 0.0 43.57699710109503" Properties=species:S:1:pos:R:3:forces:R:3 energy=-1034.0876296705708 pbc="T T T"
C        0.00000000       0.00000000      20.00894141       0.00000000      -0.03414836      -0.03768954
C        1.22852643       0.71285443      20.00894141       0.00000000       0.03414836      -0.03768954
C        0.00000000       0.00000000      23.56805619       0.00000000      -0.03414836       0.03768954
C        1.22852643       0.71285443      23.56805619       0.00000000       0.03414836       0.03768954
4
Lattice="2.469400151009717 0.0 0.0 1.2347000755048585 2.1385622657781904 0.0 0.0 0.0 43.57700317663782" Properties=species:S:1:pos:R:3:forces:R:3 energy=-1034.089528616994 pbc="T T T"
C        0.00000000       0.00000000      20.00000124       0.00000000       0.00000000      -0.04182234
C        1.23470008       0.71285434      20.00000124       0.00000000      -0.00000000      -0.04182234
C        0.00000000       0.00000000      23.57700144       0.00000000      -0.00000000       0.04182234
C        1.23470008       0.71285434      23.57700144       0.00000000       0.00000000       0.04182234
4
Lattice="2.481746913635022 0.0 0.0 1.240873456817511 2.13856350517683 0.0 0.0 0.0 43.57699902001118" Properties=species:S:1:pos:R:3:forces:R:3 energy=-1034.0857443298396 pbc="T T T"
C        0.00000000       0.00000000      19.99105683       0.00000000       0.03089180      -0.03943224
C        1.24087346       0.71285425      19.99105683       0.00000000      -0.03089180      -0.03943224
C        0.00000000       0.00000000      23.58594169       0.00000000       0.03089180       0.03943224
C        1.24087346       0.71285425      23.58594169       0.00000000      -0.03089180       0.03943224
4
Lattice="2.444706096581899 0.0 0.0 1.2223530482909495 2.1171765972923393 0.0 0.0 0.0 43.39090271056878" Properties=species:S:1:pos:R:3:forces:R:3 energy=-1034.0738592137086 pbc="T T T"
C        0.00000000       0.00000000      20.00000074      -0.00000000      -0.00000000      -0.04524756
C        1.22235305       0.70572578      20.00000074       0.00000000       0.00000000      -0.03296309
C        1.22235305       0.70572578      23.39090099       0.00000000       0.00000000       0.03296309
C        2.44470610       1.41145180      23.39090099       0.00000000       0.00000000       0.04524756
4
Lattice="2.457052859207204 0.0 0.0 1.228526429603602 2.127869202394919 0.0 0.0 0.0 43.39089746048581" Properties=species:S:1:pos:R:3:forces:R:3 energy=-1034.0897195048517 pbc="T T T"
C        0.00000000       0.00000000      19.99999896       0.00000000       0.00000000      -0.04620350
C        1.22852643       0.70928998      19.99999896       0.00000000       0.00000000      -0.03341534
C        1.22852643       0.70928998      23.39089874       0.00000000       0.00000000       0.03341534
C        2.45705286       1.41858021      23.39089874       0.00000000       0.00000000       0.04620350
4
Lattice="2.469400151009717 0.0 0.0 1.2347000755048585 2.1385622657781904 0.0 0.0 0.0 43.39090177305727" Properties=species:S:1:pos:R:3:forces:R:3 energy=-1034.0916082470058 pbc="T T T"
C        0.00000000       0.00000000      20.00000124       0.00000000       0.00000000      -0.04713655
C        1.23470008       0.71285434      20.00000124       0.00000000       0.00000000      -0.03387891
C        1.23470008       0.71285434      23.39090152       0.00000000       0.00000000       0.03387891
C        2.46940015       1.42570892      23.39090152       0.00000000       0.00000000       0.04713655
4
Lattice="2.481746913635022 0.0 0.0 1.240873456817511 2.14925487088077 0.0 0.0 0.0 43.39089778245151" Properties=species:S:1:pos:R:3:forces:R:3 energy=-1034.0800727971575 pbc="T T T"
C        0.00000000       0.00000000      19.99999931       0.00000000       0.00000000      -0.04808554
C        1.24087346       0.71641854      19.99999931      -0.00000000       0.00000000      -0.03422935
C        1.24087346       0.71641854      23.39089921       0.00000000       0.00000000       0.03422935
C        2.48174691       1.43283733      23.39089921       0.00000000       0.00000000       0.04808554
4
Lattice="2.4940942054375355 0.0 0.0 1.2470471027187677 2.159947934264042 0.0 0.0 0.0 43.3909041753313" Properties=species:S:1:pos:R:3:forces:R:3 energy=-1034.0556233687541 pbc="T T T"
C        0.00000000       0.00000000      20.00000176      -0.00000000       0.00000000      -0.04895972
C        1.24704710       0.71998289      20.00000176       0.00000000      -0.00000000      -0.03461579
C        1.24704710       0.71998289      23.39090191       0.00000000       0.00000000       0.03461579
C        2.49409421       1.43996604      23.39090191       0.00000000      -0.00000000       0.04895972
