4
Lattice="2.435399986195794 0.0 0.0 1.2546011736887357 2.1730319102829347 0.0 0.0 0.0 43.43000087383235" Properties=species:S:1:pos:R:3:forces:R:3 energy=-1016.8345130959516 pbc="T T T"
C        0.00147579      -0.00287231      19.99997391       0.01708190       0.01138536       0.00254668
C        1.22854663       0.72721416      20.00026647      -0.01626994      -0.01142264       0.00516560
C        1.23145337       0.72147314      23.42973353       0.01626994       0.01142264      -0.00516560
C        2.45852421       1.45155961      23.43002609      -0.01708190      -0.01138536      -0.00254668
4
Lattice="2.435399986195794 0.0 0.0 1.230001198428172 2.1304221521244533 0.0 0.0 0.0 43.29999922256921" Properties=species:S:1:pos:R:3:forces:R:3 energy=-1016.8615784907427 pbc="T T T"
C        0.00000000       0.00000000      19.99999980       0.06116474      -0.13011685      -0.03103347
C        1.22179999       0.71014072      19.99999980      -0.05969202       0.13123862      -0.01357748
C        1.22179999       0.71014072      23.29999991       0.05969202      -0.13123862       0.01357748
C        2.44359998       1.42028168      23.29999991      -0.06116474       0.13011685       0.03103347
4
Lattice="2.435399986195794 0.0 0.0 1.2546011736887357 2.1730319102829347 0.0 0.0 0.0 43.43000087383235" Properties=species:S:1:pos:R:3:forces:R:3 energy=-1016.8157203700263 pbc="T T T"
C        0.00156782      -0.00266410      19.93961741       0.00026559      -0.00304316      -0.00796785
C        1.22843218       0.72700775      19.93961741      -0.00026559       0.00304316      -0.00796785
C        0.00156782      -0.00266410      23.49038259       0.00026559      -0.00304316       0.00796785
C        1.22843218       0.72700775      23.49038259      -0.00026559       0.00304316       0.00796785
4
Lattice="2.435399986195794 0.0 0.0 1.230001198428172 2.1304221521244533 0.0 0.0 0.0 43.350000419685806" Properties=species:S:1:pos:R:3:forces:R:3 energy=-1016.8633064136181 pbc="T T T"
C        0.00000000       0.00000000      19.99999980       0.05970436      -0.13010759      -0.01976510
C        1.22179999       0.71014072      19.99999980      -0.05841161       0.13113217      -0.00521317
C        1.22179999       0.71014072      23.34999989       0.05841161      -0.13113217       0.00521317
C        2.44359998       1.42028168      23.34999989      -0.05970436       0.13010759       0.01976510
4
Lattice="2.447700181226763 0.0 0.0 1.2300011611688044 2.1304219406356064 0.0 0.0 0.0 43.300002231115215" Properties=species:S:1:pos:R:3:forces:R:3 energy=-1016.8770201347448 pbc="T T T"
C        0.00000000       0.00000000      20.00000153       0.02108690      -0.06600922      -0.03156363
C        1.22590004       0.71014097      20.00000153      -0.01947816       0.06711916      -0.01369370
C        1.22590004       0.71014097      23.30000168       0.01947816      -0.06711916       0.01369370
C        2.45180008       1.42028170      23.30000168      -0.02108690       0.06600922       0.03156363
4
Lattice="2.447700181226763 0.0 0.0 1.2300011611688044 2.1304219406356064 0.0 0.0 0.0 43.350003850417316" Properties=species:S:1:pos:R:3:forces:R:3 energy=-1016.8787758132319 pbc="T T T"
C        0.00000000       0.00000000      20.00000153       0.01965891      -0.06636274      -0.02021993
C        1.22590004       0.71014097      20.00000153      -0.01819878       0.06735673      -0.00520623
C        1.22590004       0.71014097      23.35000183       0.01819878      -0.06735673       0.00520623
C        2.45180008       1.42028170      23.35000183      -0.01965891       0.06636274       0.02021993
4
Lattice="2.447700181226763 0.0 0.0 1.2300011611688044 2.1304219406356064 0.0 0.0 0.0 43.37000400859812" Properties=species:S:1:pos:R:3:forces:R:3 energy=-1016.8792020795602 pbc="T T T"
C        0.00000000       0.00000000      20.00000153       0.01914135      -0.06649593      -0.01558654
C        1.22590004       0.71014097      20.00000153      -0.01772030       0.06748066      -0.00147247
C        1.22590004       0.71014097      23.37000175       0.01772030      -0.06748066       0.00147247
C        2.45180008       1.42028170      23.37000175      -0.01914135       0.06649593       0.01558654
4
Lattice="2.447700181226763 0.0 0.0 1.2300011611688044 2.1304219406356064 0.0 0.0 0.0 43.400003022019234" Properties=species:S:1:pos:R:3:forces:R:3 energy=-1016.8795029014088 pbc="T T T"
C        0.00000000       0.00000000      20.00000153       0.01831911      -0.06673350      -0.00782464
C        1.22590004       0.71014097      20.00000153      -0.01701273       0.06763467       0.00517743
C        1.22590004       0.71014097      23.40000174       0.01701273      -0.06763467      -0.00517743
C        2.45180008       1.42028170      23.40000174      -0.01831911       0.06673350       0.00782464
4
Lattice="2.447700181226763 0.0 0.0 1.2300011611688044 2.1304219406356064 0.0 0.0 0.0 43.45000219362115" Properties=species:S:1:pos:R:3:forces:R:3 energy=-1016.8790958191062 pbc="T T T"
C        0.00000000       0.00000000      20.00000153       0.01700399      -0.06704409       0.00293414
C        1.22590004       0.71014097      20.00000153      -0.01584879       0.06784139       0.01450694
C        1.22590004       0.71014097      23.45000164       0.01584879      -0.06784139      -0.01450694
C        2.45180008       1.42028170      23.45000164      -0.01700399       0.06704409      -0.00293414
4
Lattice="2.447700181226763 0.0 0.0 1.2300011611688044 2.1304219406356064 0.0 0.0 0.0 43.50000381292325" Properties=species:S:1:pos:R:3:forces:R:3 energy=-1016.8599406375478 pbc="T T T"
C        0.00000000       0.00000000      20.00000153       0.07949337      -0.04034472      -0.01265677
C        1.22590004       0.71014097      20.00000153      -0.07949337       0.04034472      -0.01265677
C        0.00000000       0.00000000      23.50000180       0.07949337      -0.04034472       0.01265677
C        1.22590004       0.71014097      23.50000180      -0.07949337       0.04034472       0.01265677
4
Lattice="2.447700181226763 0.0 0.0 1.2300011611688044 2.1304219406356064 0.0 0.0 0.0 43.55000298452517" Properties=species:S:1:pos:R:3:forces:R:3 energy=-1016.8607421488595 pbc="T T T"
C        0.00000000       0.00000000      20.00000153       0.07953939      -0.04039306      -0.00251711
C        1.22590004       0.71014097      20.00000153      -0.07953939       0.04039306      -0.00251711
C        0.00000000       0.00000000      23.55000170       0.07953939      -0.04039306       0.00251711
C        1.22590004       0.71014097      23.55000170      -0.07953939       0.04039306       0.00251711
4
Lattice="2.447700181226763 0.0 0.0 1.2300011611688044 2.1304219406356064 0.0 0.0 0.0 43.60000215612708" Properties=species:S:1:pos:R:3:forces:R:3 energy=-1016.8607707208125 pbc="T T T"
C        0.00000000       0.00000000      20.00000153       0.00644627      -0.06952032       0.00321465
C        1.22590004       0.71014097      20.00000153      -0.00644627       0.06952032       0.00321465
C        0.00000000       0.00000000      23.60000185       0.00644627      -0.06952032      -0.00321465
C        1.22590004       0.71014097      23.60000185      -0.00644627       0.06952032      -0.00321465
4
Lattice="2.447700181226763 0.0 0.0 1.2300011611688044 2.1304219406356064 0.0 0.0 0.0 43.65000377542919" Properties=species:S:1:pos:R:3:forces:R:3 energy=-1016.8601912543933 pbc="T T T"
C        0.00000000       0.00000000      20.00000153       0.00646041      -0.06954268       0.00815091
C        1.22590004       0.71014097      20.00000153      -0.00646041       0.06954268       0.00815091
C        0.00000000       0.00000000      23.65000176       0.00646041      -0.06954268      -0.00815091
C        1.22590004       0.71014097      23.65000176      -0.00646041       0.06954268      -0.00815091
4
Lattice="2.447700181226763 0.0 0.0 1.2300011611688044 2.1304219406356064 0.0 0.0 0.0 43.70000294703111" Properties=species:S:1:pos:R:3:forces:R:3 energy=-1016.8591583102617 pbc="T T T"
C        0.00000000       0.00000000      20.00000153       0.00647995      -0.06948766       0.01355666
C        1.22590004       0.71014097      20.00000153      -0.00647995       0.06948766       0.01355666
C        0.00000000       0.00000000      23.70000166       0.00647995      -0.06948766      -0.01355666
C        1.22590004       0.71014097      23.70000166      -0.00647995       0.06948766      -0.01355666
4
Lattice="2.447700181226763 0.0 0.0 1.2546005479901334 2.173031505390402 0.0 0.0 0.0 43.430002035440346" Properties=species:S:1:pos:R:3:forces:R:3 energy=-1016.8487368944687 pbc="T T T"
C        0.00133797      -0.00214997      19.99997519      -0.00993294      -0.00569705      -0.00037384
C        1.23276811       0.72649604      20.00009790       0.01073513       0.00598681       0.00822547
C        1.23543189       0.72219126      23.42990210      -0.01073513      -0.00598681      -0.00822547
C        2.46686203       1.45083727      23.43002481       0.00993294       0.00569705       0.00037384
4
Lattice="2.435399986195794 0.0 0.0 1.230001198428172 2.1304221521244533 0.0 0.0 0.0 43.36999992437244" Properties=species:S:1:pos:R:3:forces:R:3 energy=-1016.8637220675066 pbc="T T T"
C        0.00000000       0.00000000      19.99999980       0.05913049      -0.13008908      -0.01517337
C        1.22179999       0.71014072      19.99999980      -0.05790433       0.13108024      -0.00155295
C        1.22179999       0.71014072      23.36999988       0.05790433      -0.13108024       0.00155295
C        2.44359998       1.42028168      23.36999988      -0.05913049       0.13008908       0.01517337
4
Lattice="2.4599998470805247 0.0 0.0 1.2299999235402623 2.1304213675679113 0.0 0.0 0.0 43.299997268368585" Properties=species:S:1:pos:R:3:forces:R:3 energy=-1016.8853762065022 pbc="T T T"
C        0.00000000       0.00000000      19.99999875       0.00000000      -0.00000000      -0.03201023
C        1.22999992       0.71014070      19.99999875       0.00000000       0.00000000      -0.01385053
C        1.22999992       0.71014070      23.29999851       0.00000000       0.00000000       0.01385053
C        2.45999985       1.42028165      23.29999851       0.00000000       0.00000000       0.03201023
4
Lattice="2.4599998470805247 0.0 0.0 1.2299999235402623 2.1304213675679113 0.0 0.0 0.0 43.3499967652605" Properties=species:S:1:pos:R:3:forces:R:3 energy=-1016.8871624977961 pbc="T T T"
C        0.00000000       0.00000000      19.99999875       0.00000000       0.00000000      -0.02067707
C        1.22999992       0.71014070      19.99999875       0.00000000      -0.00000000      -0.00536178
C        1.22999992       0.71014070      23.34999850       0.00000000      -0.00000000       0.00536178
C        2.45999985       1.42028165      23.34999850       0.00000000      -0.00000000       0.02067707
4
Lattice="2.4599998470805247 0.0 0.0 1.2299999235402623 2.1304213675679113 0.0 0.0 0.0 43.36999656401726" Properties=species:S:1:pos:R:3:forces:R:3 energy=-1016.8876025058732 pbc="T T T"
C        0.00000000       0.00000000      19.99999875       0.00000000       0.00000000      -0.01600255
C        1.22999992       0.71014070      19.99999875       0.00000000      -0.00000000      -0.00160128
C        1.22999992       0.71014070      23.36999855       0.00000000      -0.00000000       0.00160128
C        2.45999985       1.42028165      23.36999855       0.00000000       0.00000000       0.01600255
4
Lattice="2.4599998470805247 0.0 0.0 1.2299999235402623 2.1304213675679113 0.0 0.0 0.0 43.399996262152406" Properties=species:S:1:pos:R:3:forces:R:3 energy=-1016.8879193824383 pbc="T T T"
C        0.00000000       0.00000000      19.99999875       0.00000000       0.00000000      -0.00829618
C        1.22999992       0.71014070      19.99999875       0.00000000       0.00000000       0.00502188
C        1.22999992       0.71014070      23.39999849       0.00000000       0.00000000      -0.00502188
C        2.45999985       1.42028165      23.39999849       0.00000000       0.00000000       0.00829618
4
Lattice="2.4599998470805247 0.0 0.0 1.2299999235402623 2.1304213675679113 0.0 0.0 0.0 43.44999821904417" Properties=species:S:1:pos:R:3:forces:R:3 energy=-1016.8875435932272 pbc="T T T"
C        0.00000000       0.00000000      19.99999875       0.00000000       0.00000000       0.00245926
C        1.22999992       0.71014070      19.99999875       0.00000000       0.00000000       0.01422848
C        1.22999992       0.71014070      23.44999848       0.00000000      -0.00000000      -0.01422848
C        2.45999985       1.42028165      23.44999848       0.00000000      -0.00000000      -0.00245926
4
Lattice="2.4599998470805247 0.0 0.0 1.2299999235402623 2.1304213675679113 0.0 0.0 0.0 43.49999771593608" Properties=species:S:1:pos:R:3:forces:R:3 energy=-1016.8683032400373 pbc="T T T"
C        0.00000000       0.00000000      19.99999875       0.00000000      -0.00000000      -0.01330160
C        1.22999992       0.71014070      19.99999875       0.00000000      -0.00000000      -0.01330160
C        0.00000000       0.00000000      23.49999847       0.00000000      -0.00000000       0.01330160
C        1.22999992       0.71014070      23.49999847       0.00000000       0.00000000       0.01330160
4
Lattice="2.4599998470805247 0.0 0.0 1.2299999235402623 2.1304213675679113 0.0 0.0 0.0 43.54999721282799" Properties=species:S:1:pos:R:3:forces:R:3 energy=-1016.8691684259875 pbc="T T T"
C        0.00000000       0.00000000      19.99999875       0.00000000      -0.00000000      -0.00313417
C        1.22999992       0.71014070      19.99999875       0.00000000       0.00000000      -0.00313417
C        0.00000000       0.00000000      23.54999846       0.00000000       0.00000000       0.00313417
C        1.22999992       0.71014070      23.54999846       0.00000000       0.00000000       0.00313417
4
Lattice="2.4599998470805247 0.0 0.0 1.2299999235402623 2.1304213675679113 0.0 0.0 0.0 43.5999967097199" Properties=species:S:1:pos:R:3:forces:R:3 energy=-1016.8691223026917 pbc="T T T"
C        0.00000000       0.00000000      19.99999875       0.00000000       0.00000000       0.00283978
C        1.22999992       0.71014070      19.99999875       0.00000000      -0.00000000       0.00283978
C        0.00000000       0.00000000      23.59999845       0.00000000       0.00000000      -0.00283978
C        1.22999992       0.71014070      23.59999845       0.00000000      -0.00000000      -0.00283978
4
Lattice="2.4599998470805247 0.0 0.0 1.2299999235402623 2.1304213675679113 0.0 0.0 0.0 43.64999620661181" Properties=species:S:1:pos:R:3:forces:R:3 energy=-1016.8685730409082 pbc="T T T"
C        0.00000000       0.00000000      19.99999875       0.00000000      -0.00000000       0.00804961
C        1.22999992       0.71014070      19.99999875       0.00000000      -0.00000000       0.00804961
C        0.00000000       0.00000000      23.64999844       0.00000000      -0.00000000      -0.00804961
C        1.22999992       0.71014070      23.64999844       0.00000000       0.00000000      -0.00804961
4
Lattice="2.4599998470805247 0.0 0.0 1.2299999235402623 2.1304213675679113 0.0 0.0 0.0 43.69999816350357" Properties=species:S:1:pos:R:3:forces:R:3 energy=-1016.8675675802746 pbc="T T T"
C        0.00000000       0.00000000      19.99999875       0.00000000       0.00000000       0.01342193
C        1.22999992       0.71014070      19.99999875       0.00000000      -0.00000000       0.01342193
C        0.00000000       0.00000000      23.69999842       0.00000000       0.00000000      -0.01342193
C        1.22999992       0.71014070      23.69999842       0.00000000      -0.00000000      -0.01342193
4
Lattice="2.447700181226763 0.0 0.0 1.2546005479901334 2.173031505390402 0.0 0.0 0.0 43.430002035440346" Properties=species:S:1:pos:R:3:forces:R:3 energy=-1016.8262894075765 pbc="T T T"
C        0.00172183      -0.00231844      19.98942287       0.01559297       0.01670754      -0.02469750
C        1.23237817       0.72666209      19.98942287      -0.01559297      -0.01670754      -0.02469750
C        0.00172183      -0.00231844      23.44057713       0.01559297       0.01670754       0.02469750
C        1.23237817       0.72666209      23.44057713      -0.01559297      -0.01670754       0.02469750
4
Lattice="2.435399986195794 0.0 0.0 1.230001198428172 2.1304221521244533 0.0 0.0 0.0 43.39999918140241" Properties=species:S:1:pos:R:3:forces:R:3 energy=-1016.8640057461834 pbc="T T T"
C        0.00000000       0.00000000      19.99999980       0.05830825      -0.13008188      -0.00747908
C        1.22179999       0.71014072      19.99999980      -0.05721733       0.13099873       0.00513295
C        1.22179999       0.71014072      23.39999987       0.05721733      -0.13099873      -0.00513295
C        2.44359998       1.42028168      23.39999987      -0.05830825       0.13008188       0.00747908
4
Lattice="2.4723000421114945 0.0 0.0 1.2299989385509738 2.1304229753881905 0.0 0.0 0.0 43.30000138634307" Properties=species:S:1:pos:R:3:forces:R:3 energy=-1016.8868807239161 pbc="T T T"
C        0.00000000       0.00000000      20.00000025      -0.04231316       0.04482410      -0.03266124
C        1.23409999       0.71014074      20.00000025       0.04419315      -0.04396432      -0.01411407
C        1.23409999       0.71014074      23.30000039      -0.04419315       0.04396432       0.01411407
C        2.46819998       1.42028174      23.30000039       0.04231316      -0.04482410       0.03266124
4
Lattice="2.4723000421114945 0.0 0.0 1.2299989385509738 2.1304229753881905 0.0 0.0 0.0 43.350001182394735" Properties=species:S:1:pos:R:3:forces:R:3 energy=-1016.8887119139933 pbc="T T T"
C        0.00000000       0.00000000      20.00000025      -0.04336705       0.04377843      -0.02126585
C        1.23409999       0.71014074      20.00000025       0.04502336      -0.04303050      -0.00564511
C        1.23409999       0.71014074      23.35000043      -0.04502336       0.04303050       0.00564511
C        2.46819998       1.42028174      23.35000043       0.04336705      -0.04377843       0.02126585
4
Lattice="2.4723000421114945 0.0 0.0 1.2299989385509738 2.1304229753881905 0.0 0.0 0.0 43.369999617435376" Properties=species:S:1:pos:R:3:forces:R:3 energy=-1016.889166616218 pbc="T T T"
C        0.00000000       0.00000000      20.00000025      -0.04375760       0.04335703      -0.01663967
C        1.23409999       0.71014074      20.00000025       0.04532366      -0.04265537      -0.00187819
C        1.23409999       0.71014074      23.37000035      -0.04532366       0.04265537       0.00187819
C        2.46819998       1.42028174      23.37000035       0.04375760      -0.04335703       0.01663967
4
Lattice="2.4723000421114945 0.0 0.0 1.2299989385509738 2.1304229753881905 0.0 0.0 0.0 43.4000009784464" Properties=species:S:1:pos:R:3:forces:R:3 energy=-1016.8895094796545 pbc="T T T"
C        0.00000000       0.00000000      20.00000025      -0.04434690       0.04274896      -0.00879857
C        1.23409999       0.71014074      20.00000025       0.04579418      -0.04209719       0.00478302
C        1.23409999       0.71014074      23.40000048      -0.04579418       0.04209719      -0.00478302
C        2.46819998       1.42028174      23.40000048       0.04434690      -0.04274896       0.00879857
4
Lattice="2.4723000421114945 0.0 0.0 1.2299989385509738 2.1304229753881905 0.0 0.0 0.0 43.450000774498065" Properties=species:S:1:pos:R:3:forces:R:3 energy=-1016.8891719224378 pbc="T T T"
C        0.00000000       0.00000000      20.00000025      -0.04525527       0.04177991       0.00215407
C        1.23409999       0.71014074      20.00000025       0.04656422      -0.04119139       0.01399169
C        1.23409999       0.71014074      23.45000052      -0.04656422       0.04119139      -0.01399169
C        2.46819998       1.42028174      23.45000052       0.04525527      -0.04177991      -0.00215407
4
Lattice="2.4723000421114945 0.0 0.0 1.2299989385509738 2.1304229753881905 0.0 0.0 0.0 43.50000057054972" Properties=species:S:1:pos:R:3:forces:R:3 energy=-1016.8697465318377 pbc="T T T"
C        0.00000000       0.00000000      20.00000025       0.00824090       0.08182227      -0.01396135
C        1.23409999       0.71014074      20.00000025      -0.00824090      -0.08182227      -0.01396135
C        0.00000000       0.00000000      23.50000032       0.00824090       0.08182227       0.01396135
C        1.23409999       0.71014074      23.50000032      -0.00824090      -0.08182227       0.01396135
4
Lattice="2.4723000421114945 0.0 0.0 1.2299989385509738 2.1304229753881905 0.0 0.0 0.0 43.55000036660139" Properties=species:S:1:pos:R:3:forces:R:3 energy=-1016.870659881937 pbc="T T T"
C        0.00000000       0.00000000      20.00000025       0.00824733       0.08182896      -0.00359980
C        1.23409999       0.71014074      20.00000025      -0.00824733      -0.08182896      -0.00359980
C        0.00000000       0.00000000      23.55000036       0.00824733       0.08182896       0.00359980
C        1.23409999       0.71014074      23.55000036      -0.00824733      -0.08182896       0.00359980
4
Lattice="2.4723000421114945 0.0 0.0 1.2299989385509738 2.1304229753881905 0.0 0.0 0.0 43.60000016265305" Properties=species:S:1:pos:R:3:forces:R:3 energy=-1016.8706726712875 pbc="T T T"
C        0.00000000       0.00000000      20.00000025      -0.05280840       0.03372156       0.00250143
C        1.23409999       0.71014074      20.00000025       0.05280840      -0.03372156       0.00250143
C        0.00000000       0.00000000      23.60000040      -0.05280840       0.03372156      -0.00250143
C        1.23409999       0.71014074      23.60000040       0.05280840      -0.03372156      -0.00250143
4
Lattice="2.4723000421114945 0.0 0.0 1.2299989385509738 2.1304229753881905 0.0 0.0 0.0 43.64999995870471" Properties=species:S:1:pos:R:3:forces:R:3 energy=-1016.8701537501971 pbc="T T T"
C        0.00000000       0.00000000      20.00000025      -0.05282614       0.03376810       0.00773979
C        1.23409999       0.71014074      20.00000025       0.05282614      -0.03376810       0.00773979
C        0.00000000       0.00000000      23.65000045      -0.05282614       0.03376810      -0.00773979
C        1.23409999       0.71014074      23.65000045       0.05282614      -0.03376810      -0.00773979
4
Lattice="2.4723000421114945 0.0 0.0 1.2299989385509738 2.1304229753881905 0.0 0.0 0.0 43.69999975475637" Properties=species:S:1:pos:R:3:forces:R:3 energy=-1016.8691695144427 pbc="T T T"
C        0.00000000       0.00000000      20.00000025      -0.05282434       0.03377581       0.01302932
C        1.23409999       0.71014074      20.00000025       0.05282434      -0.03377581       0.01302932
C        0.00000000       0.00000000      23.70000049      -0.05282434       0.03377581      -0.01302932
C        1.23409999       0.71014074      23.70000049       0.05282434      -0.03377581      -0.01302932
4
Lattice="2.4599998470805247 0.0 0.0 1.2545999220110675 2.173031024919193 0.0 0.0 0.0 43.4299984202874" Properties=species:S:1:pos:R:3:forces:R:3 energy=-1016.8562056029983 pbc="T T T"
C        0.00095118      -0.00167287      19.99997065      -0.00585774      -0.00298171      -0.00066617
C        1.23725635       0.72602204      20.00010106       0.00682191       0.00351496       0.00809589
C        1.23914365       0.72266526      23.42989894      -0.00682191      -0.00351496      -0.00809589
C        2.47544882       1.45036017      23.43002935       0.00585774       0.00298171       0.00066617
4
Lattice="2.435399986195794 0.0 0.0 1.230001198428172 2.1304221521244533 0.0 0.0 0.0 43.450000378518986" Properties=species:S:1:pos:R:3:forces:R:3 energy=-1016.8635839697336 pbc="T T T"
C        0.00000000       0.00000000      19.99999980       0.05703375      -0.13002634       0.00325913
C        1.22179999       0.71014072      19.99999980      -0.05607730       0.13080642       0.01437941
C        1.22179999       0.71014072      23.44999984       0.05607730      -0.13080642      -0.01437941
C        2.44359998       1.42028168      23.44999984      -0.05703375       0.13002634      -0.00325913
4
Lattice="2.4846002371424643 0.0 0.0 1.230001347397377 2.130422957938043 0.0 0.0 0.0 43.300002911965194" Properties=species:S:1:pos:R:3:forces:R:3 energy=-1016.8817719226523 pbc="T T T"
C        0.00000000       0.00000000      20.00000179      -0.06600819       0.09162692      -0.03327316
C        1.23820003       0.71014099      20.00000179       0.06774497      -0.09092269      -0.01447711
C        1.23820003       0.71014099      23.30000211      -0.06774497       0.09092269       0.01447711
C        2.47640031       1.42028172      23.30000211       0.06600819      -0.09162692       0.03327316
4
Lattice="2.4846002371424643 0.0 0.0 1.230001347397377 2.130422957938043 0.0 0.0 0.0 43.35000300713746" Properties=species:S:1:pos:R:3:forces:R:3 energy=-1016.8836520932206 pbc="T T T"
C        0.00000000       0.00000000      20.00000179      -0.06669364       0.09035525      -0.02185515
C        1.23820003       0.71014099      20.00000179       0.06824016      -0.08977135      -0.00597884
C        1.23820003       0.71014099      23.35000221      -0.06824016       0.08977135       0.00597884
C        2.47640031       1.42028172      23.35000221       0.06669364      -0.09035525       0.02185515
4
Lattice="2.4846002371424643 0.0 0.0 1.230001347397377 2.130422957938043 0.0 0.0 0.0 43.37000403904645" Properties=species:S:1:pos:R:3:forces:R:3 energy=-1016.8841242107306 pbc="T T T"
C        0.00000000       0.00000000      20.00000179      -0.06695358       0.08985517      -0.01714926
C        1.23820003       0.71014099      20.00000179       0.06841551      -0.08931112      -0.00213453
C        1.23820003       0.71014099      23.37000225      -0.06841551       0.08931112       0.00213453
C        2.47640031       1.42028172      23.37000225       0.06695358      -0.08985517       0.01714926
4
Lattice="2.4846002371424643 0.0 0.0 1.230001347397377 2.130422957938043 0.0 0.0 0.0 43.40000310230971" Properties=species:S:1:pos:R:3:forces:R:3 energy=-1016.8844874827054 pbc="T T T"
C        0.00000000       0.00000000      20.00000179      -0.06736830       0.08914066      -0.00930482
C        1.23820003       0.71014099      20.00000179       0.06872559      -0.08863338       0.00456397
C        1.23820003       0.71014099      23.40000230      -0.06872559       0.08863338      -0.00456397
C        2.47640031       1.42028172      23.40000230       0.06736830      -0.08914066       0.00930482
4
Lattice="2.4846002371424643 0.0 0.0 1.230001347397377 2.130422957938043 0.0 0.0 0.0 43.45000319748196" Properties=species:S:1:pos:R:3:forces:R:3 energy=-1016.884185980572 pbc="T T T"
C        0.00000000       0.00000000      20.00000179      -0.06796068       0.08801220       0.00167636
C        1.23820003       0.71014099      20.00000179       0.06917039      -0.08757357       0.01368187
C        1.23820003       0.71014099      23.45000215      -0.06917039       0.08757357      -0.01368187
C        2.47640031       1.42028172      23.45000215       0.06796068      -0.08801220      -0.00167636
4
Lattice="2.4846002371424643 0.0 0.0 1.230001347397377 2.130422957938043 0.0 0.0 0.0 43.50000329265421" Properties=species:S:1:pos:R:3:forces:R:3 energy=-1016.8644941905238 pbc="T T T"
C        0.00000000       0.00000000      20.00000179      -0.01934575       0.13403289      -0.01453907
C        1.23820003       0.71014099      20.00000179       0.01934575      -0.13403289      -0.01453907
C        0.00000000       0.00000000      23.50000224      -0.01934575       0.13403289       0.01453907
C        1.23820003       0.71014099      23.50000224       0.01934575      -0.13403289       0.01453907
4
Lattice="2.4846002371424643 0.0 0.0 1.230001347397377 2.130422957938043 0.0 0.0 0.0 43.55000338782647" Properties=species:S:1:pos:R:3:forces:R:3 energy=-1016.8654574735126 pbc="T T T"
C        0.00000000       0.00000000      20.00000179      -0.01936735       0.13408766      -0.00402301
C        1.23820003       0.71014099      20.00000179       0.01936735      -0.13408766      -0.00402301
C        0.00000000       0.00000000      23.55000234      -0.01936735       0.13408766       0.00402301
C        1.23820003       0.71014099      23.55000234       0.01936735      -0.13408766       0.00402301
4
Lattice="2.4846002371424643 0.0 0.0 1.230001347397377 2.130422957938043 0.0 0.0 0.0 43.60000348299873" Properties=species:S:1:pos:R:3:forces:R:3 energy=-1016.8656448238905 pbc="T T T"
C        0.00000000       0.00000000      20.00000179      -0.07261361       0.07863616       0.00220369
C        1.23820003       0.71014099      20.00000179       0.07261361      -0.07863616       0.00220369
C        0.00000000       0.00000000      23.60000219      -0.07261361       0.07863616      -0.00220369
C        1.23820003       0.71014099      23.60000219       0.07261361      -0.07863616      -0.00220369
4
Lattice="2.4846002371424643 0.0 0.0 1.230001347397377 2.130422957938043 0.0 0.0 0.0 43.65000357817098" Properties=species:S:1:pos:R:3:forces:R:3 energy=-1016.8651629102824 pbc="T T T"
C        0.00000000       0.00000000      20.00000179      -0.07266015       0.07872615       0.00726260
C        1.23820003       0.71014099      20.00000179       0.07266015      -0.07872615       0.00726260
C        0.00000000       0.00000000      23.65000228      -0.07266015       0.07872615      -0.00726260
C        1.23820003       0.71014099      23.65000228       0.07266015      -0.07872615      -0.00726260
4
Lattice="2.4846002371424643 0.0 0.0 1.230001347397377 2.130422957938043 0.0 0.0 0.0 43.70000367334324" Properties=species:S:1:pos:R:3:forces:R:3 energy=-1016.8642222127421 pbc="T T T"
C        0.00000000       0.00000000      20.00000179      -0.07266863       0.07874569       0.01252693
C        1.23820003       0.71014099      20.00000179       0.07266863      -0.07874569       0.01252693
C        0.00000000       0.00000000      23.70000238      -0.07266863       0.07874569      -0.01252693
C        1.23820003       0.71014099      23.70000238       0.07266863      -0.07874569      -0.01252693
4
Lattice="2.4599998470805247 0.0 0.0 1.2545999220110675 2.173031024919193 0.0 0.0 0.0 43.4299984202874" Properties=species:S:1:pos:R:3:forces:R:3 energy=-1016.8338031509466 pbc="T T T"
C        0.00147738      -0.00168275      19.98938073       0.00419578       0.00877183      -0.02532717
C        1.23672262       0.72602640      19.98938073      -0.00419578      -0.00877183      -0.02532717
C        0.00147738      -0.00168275      23.44061927       0.00419578       0.00877183       0.02532717
C        1.23672262       0.72602640      23.44061927      -0.00419578      -0.00877183       0.02532717
4
Lattice="2.435399986195794 0.0 0.0 1.230001198428172 2.1304221521244533 0.0 0.0 0.0 43.499999140235595" Properties=species:S:1:pos:R:3:forces:R:3 energy=-1016.8444402169564 pbc="T T T"
C        0.00000000       0.00000000      19.99999980       0.12338853      -0.11061606      -0.01210193
C        1.22179999       0.71014072      19.99999980      -0.12338853       0.11061606      -0.01210193
C        0.00000000       0.00000000      23.49999982       0.12338853      -0.11061606       0.01210193
C        1.22179999       0.71014072      23.49999982      -0.12338853       0.11061606       0.01210193
4
Lattice="2.4723000421114945 0.0 0.0 1.2546007962700254 2.17303059431394 0.0 0.0 0.0 43.429999867157385" Properties=species:S:1:pos:R:3:forces:R:3 energy=-1016.857091741714 pbc="T T T"
C        0.00060704      -0.00122943      19.99996563      -0.00279402      -0.00090734      -0.00112331
C        1.24170249       0.72558092      20.00010346       0.00388699       0.00160745       0.00776653
C        1.24289751       0.72310638      23.42989654      -0.00388699      -0.00160745      -0.00776653
C        2.48399296       1.44991673      23.43003437       0.00279402       0.00090734       0.00112331
4
Lattice="2.435399986195794 0.0 0.0 1.230001198428172 2.1304221521244533 0.0 0.0 0.0 43.550000337352174" Properties=species:S:1:pos:R:3:forces:R:3 energy=-1016.8452799602626 pbc="T T T"
C        0.00000000       0.00000000      19.99999980       0.04686555      -0.12931106      -0.00655940
C        1.22179999       0.71014072      19.99999980      -0.04686555       0.12931106      -0.00655940
C        0.00000000       0.00000000      23.54999980       0.04686555      -0.12931106       0.00655940
C        1.22179999       0.71014072      23.54999980      -0.04686555       0.12931106       0.00655940
4
Lattice="2.4723000421114945 0.0 0.0 1.2546007962700254 2.17303059431394 0.0 0.0 0.0 43.429999867157385" Properties=species:S:1:pos:R:3:forces:R:3 energy=-1016.8352490278281 pbc="T T T"
C        0.00119182      -0.00114448      19.98353510       0.00025814       0.00667921      -0.02342558
C        1.24110818       0.72548813      19.98353510      -0.00025814      -0.00667921      -0.02342558
C        0.00119182      -0.00114448      23.44646490       0.00025814       0.00667921       0.02342558
C        1.24110818       0.72548813      23.44646490      -0.00025814      -0.00667921       0.02342558
4
Lattice="2.435399986195794 0.0 0.0 1.230001198428172 2.1304221521244533 0.0 0.0 0.0 43.599999099068775" Properties=species:S:1:pos:R:3:forces:R:3 energy=-1016.8454043162869 pbc="T T T"
C        0.00000000       0.00000000      19.99999980       0.04691903      -0.12939797       0.00368799
C        1.22179999       0.71014072      19.99999980      -0.04691903       0.12939797       0.00368799
C        0.00000000       0.00000000      23.59999978       0.04691903      -0.12939797      -0.00368799
C        1.22179999       0.71014072      23.59999978      -0.04691903       0.12939797      -0.00368799
4
Lattice="2.4846002371424643 0.0 0.0 1.2545988897450873 2.1730313674047994 0.0 0.0 0.0 43.4300046501732" Properties=species:S:1:pos:R:3:forces:R:3 energy=-1016.8515856542456 pbc="T T T"
C        0.00029723      -0.00081475      19.99993579       0.00143905       0.00080810       0.00178177
C        1.24613906       0.72518352      20.00026605      -0.00024425      -0.00002931       0.00453517
C        1.24666094       0.72350378      23.42973395       0.00024425       0.00002931      -0.00453517
C        2.49250277       1.44950205      23.43006421      -0.00143905      -0.00080810      -0.00178177
4
Lattice="2.435399986195794 0.0 0.0 1.230001198428172 2.1304221521244533 0.0 0.0 0.0 43.65000029618537" Properties=species:S:1:pos:R:3:forces:R:3 energy=-1016.8447784544578 pbc="T T T"
C        0.00000000       0.00000000      19.99999980       0.04698408      -0.12945067       0.00844376
C        1.22179999       0.71014072      19.99999980      -0.04698408       0.12945067       0.00844376
C        0.00000000       0.00000000      23.64999976       0.04698408      -0.12945067      -0.00844376
C        1.22179999       0.71014072      23.64999976      -0.04698408       0.12945067      -0.00844376
4
Lattice="2.4846002371424643 0.0 0.0 1.2545988897450873 2.1730313674047994 0.0 0.0 0.0 43.4300046501732" Properties=species:S:1:pos:R:3:forces:R:3 energy=-1016.8324795892353 pbc="T T T"
C        0.00082765      -0.00042031      19.92764468       0.00746983      -0.01760794       0.00035790
C        1.24557235       0.72476396      19.92764468      -0.00746983       0.01760794       0.00035790
C        0.00082765      -0.00042031      23.50235532       0.00746983      -0.01760794      -0.00035790
C        1.24557235       0.72476396      23.50235532      -0.00746983       0.01760794      -0.00035790
4
Lattice="2.435399986195794 0.0 0.0 1.230001198428172 2.1304221521244533 0.0 0.0 0.0 43.699999057901955" Properties=species:S:1:pos:R:3:forces:R:3 energy=-1016.8437185710563 pbc="T T T"
C        0.00000000       0.00000000      19.99999980       0.04701879      -0.12943859       0.01375077
C        1.22179999       0.71014072      19.99999980      -0.04701879       0.12943859       0.01375077
C        0.00000000       0.00000000      23.69999999       0.04701879      -0.12943859      -0.01375077
C        1.22179999       0.71014072      23.69999999      -0.04701879       0.12943859      -0.01375077
