4
Lattice="2.444706096581899 0.0 0.0 1.2223530482909495 2.1385628862252375 0.0 0.0 0.0 43.39090271056878" Properties=species:S:1:pos:R:3:forces:R:3 energy=-1016.879762225897 pbc="T T T"
C        0.00000000       0.00000000      20.00000074       0.00000000      -0.11959435      -0.01061300
C        1.22235305       0.71285430      20.00000074       0.00000000       0.12065107       0.00315834
C        1.22235305       0.71285430      23.39090099       0.00000000      -0.12065107      -0.00315834
C        2.44470610       1.42570884      23.39090099       0.00000000       0.11959435       0.01061300
4
Lattice="2.457052859207204 0.0 0.0 1.228526429603602 2.1385622964381885 0.0 0.0 0.0 43.39089746048581" Properties=species:S:1:pos:R:3:forces:R:3 energy=-1016.8886340894356 pbc="T T T"
C        0.00000000       0.00000000      19.99999896       0.00000000      -0.06188414      -0.01093336
C        1.22852643       0.71285443      19.99999896       0.00000000       0.06286167       0.00295985
C        1.22852643       0.71285443      23.39089874       0.00000000      -0.06286167      -0.00295985
C        2.45705286       1.42570861      23.39089874       0.00000000       0.06188414       0.01093336
4
Lattice="2.469400151009717 0.0 0.0 1.2347000755048585 2.1385622657781904 0.0 0.0 0.0 43.39090177305727" Properties=species:S:1:pos:R:3:forces:R:3 energy=-1016.8908545383589 pbc="T T T"
C        0.00000000       0.00000000      20.01695565       0.00000000      -0.00000000      -0.02003995
C        1.23470008       0.71285434      20.01695565       0.00000000       0.00000000      -0.00449223
C        1.23470008       0.71285434      23.37394687       0.00000000       0.00000000       0.00449223
C        2.46940015       1.42570892      23.37394687       0.00000000       0.00000000       0.02003995
4
Lattice="2.469400151009717 0.0 0.0 1.2347000755048585 2.1385622657781904 0.0 0.0 0.0 43.39090177305727" Properties=species:S:1:pos:R:3:forces:R:3 energy=-1016.8912112796015 pbc="T T T"
C        0.00000000       0.00000000      20.00847844      -0.00000000      -0.00000000      -0.01588428
C        1.23470008       0.71285434      20.00847844       0.00000000       0.00000000      -0.00108192
C        1.23470008       0.71285434      23.38242407       0.00000000       0.00000000       0.00108192
C        2.46940015       1.42570892      23.38242407       0.00000000       0.00000000       0.01588428
4
Lattice="2.469400151009717 0.0 0.0 1.2347000755048585 2.1385622657781904 0.0 0.0 0.0 43.39090177305727" Properties=species:S:1:pos:R:3:forces:R:3 energy=-1016.891436317746 pbc="T T T"
C        0.00000000       0.00000000      20.00000124      -0.00000000      -0.00000000      -0.01157382
C        1.23470008       0.71285434      20.00000124       0.00000000       0.00000000       0.00266032
C        1.23470008       0.71285434      23.39090152       0.00000000       0.00000000      -0.00266032
C        2.46940015       1.42570892      23.39090152       0.00000000       0.00000000       0.01157382
4
Lattice="2.469400151009717 0.0 0.0 1.2347000755048585 2.1385622657781904 0.0 0.0 0.0 43.39090177305727" Properties=species:S:1:pos:R:3:forces:R:3 energy=-1016.8915187682392 pbc="T T T"
C        0.00000000       0.00000000      19.99152404      -0.00000000       0.00000000      -0.00699674
C        1.23470008       0.71285434      19.99152404       0.00000000       0.00000000       0.00656120
C        1.23470008       0.71285434      23.39937872       0.00000000       0.00000000      -0.00656120
C        2.46940015       1.42570892      23.39937872       0.00000000       0.00000000       0.00699674
4
Lattice="2.469400151009717 0.0 0.0 1.2347000755048585 2.1385622657781904 0.0 0.0 0.0 43.39090177305727" Properties=species:S:1:pos:R:3:forces:R:3 energy=-1016.891458358967 pbc="T T T"
C        0.00000000       0.00000000      19.98304683      -0.00000000      -0.00000000      -0.00288683
C        1.23470008       0.71285434      19.98304683       0.00000000       0.00000000       0.01009672
C        1.23470008       0.71285434      23.40785593       0.00000000       0.00000000      -0.01009672
C        2.46940015       1.42570892      23.40785593       0.00000000       0.00000000       0.00288683
4
Lattice="2.444706096581899 0.0 0.0 1.2223530482909495 2.1385628862252375 0.0 0.0 0.0 43.39090271056878" Properties=species:S:1:pos:R:3:forces:R:3 energy=-1016.8792332365946 pbc="T T T"
C        0.00000000       0.00000000      20.01695526       0.00000000      -0.11945834      -0.01896549
C        1.22235305       0.71285430      20.01695526       0.00000000       0.12058448      -0.00392916
C        1.22235305       0.71285430      23.37394647       0.00000000      -0.12058448       0.00392916
C        2.44470610       1.42570884      23.37394647       0.00000000       0.11945834       0.01896549
4
Lattice="2.457052859207204 0.0 0.0 1.228526429603602 2.1385622964381885 0.0 0.0 0.0 43.39089746048581" Properties=species:S:1:pos:R:3:forces:R:3 energy=-1016.8884260584059 pbc="T T T"
C        0.00000000       0.00000000      20.00847604       0.00000000      -0.06171265      -0.01534306
C        1.22852643       0.71285443      20.00847604       0.00000000       0.06275806      -0.00082481
C        1.22852643       0.71285443      23.38242142       0.00000000      -0.06275806       0.00082481
C        2.45705286       1.42570861      23.38242142       0.00000000       0.06171265       0.01534306
4
Lattice="2.469400151009717 0.0 0.0 1.2347000755048585 2.1385622657781904 0.0 0.0 0.0 43.39090177305727" Properties=species:S:1:pos:R:3:forces:R:3 energy=-1016.891436317746 pbc="T T T"
C        0.00000000       0.00000000      20.00000124      -0.00000000       0.00000000      -0.01157382
C        1.23470008       0.71285434      20.00000124       0.00000000       0.00000000       0.00266032
C        1.23470008       0.71285434      23.39090152       0.00000000       0.00000000      -0.00266032
C        2.46940015       1.42570892      23.39090152       0.00000000       0.00000000       0.01157382
4
Lattice="2.481746913635022 0.0 0.0 1.240873456817511 2.13856350517683 0.0 0.0 0.0 43.39089778245151" Properties=species:S:1:pos:R:3:forces:R:3 energy=-1016.8884404804394 pbc="T T T"
C        0.00000000       0.00000000      19.99152216       0.00000000       0.03942478      -0.00749605
C        1.24087346       0.71285425      19.99152216       0.00000000      -0.03866785       0.00627066
C        1.24087346       0.71285425      23.39937637       0.00000000       0.03866785      -0.00627066
C        2.48174691       1.42570876      23.39937637       0.00000000      -0.03942478       0.00749605
4
Lattice="2.4940942054375355 0.0 0.0 1.2470471027187677 2.13856357054662 0.0 0.0 0.0 43.3909041753313" Properties=species:S:1:pos:R:3:forces:R:3 energy=-1016.8796246723515 pbc="T T T"
C        0.00000000       0.00000000      19.98304716       0.00000000       0.08328112      -0.00375921
C        1.24704710       0.71285452      19.98304716       0.00000000      -0.08260800       0.00951822
C        1.24704710       0.71285452      23.40785652       0.00000000       0.08260800      -0.00951822
C        2.49409421       1.42570880      23.40785652       0.00000000      -0.08328112       0.00375921
4
Lattice="2.469400151009717 0.0 0.0 1.2347000755048585 2.1385622657781904 0.0 0.0 0.0 43.39090177305727" Properties=species:S:1:pos:R:3:forces:R:3 energy=-1016.891436317746 pbc="T T T"
C        0.00000000       0.00000000      20.00000124      -0.00000000       0.00000000      -0.01157382
C        1.23470008       0.71285434      20.00000124       0.00000000       0.00000000       0.00266032
C        1.23470008       0.71285434      23.39090152       0.00000000       0.00000000      -0.00266032
C        2.46940015       1.42570892      23.39090152       0.00000000       0.00000000       0.01157382
4
Lattice="2.469400151009717 0.0 0.0 1.2347000755048585 2.1385622657781904 0.0 0.0 0.0 43.39090177305727" Properties=species:S:1:pos:R:3:forces:R:3 energy=-1016.8914248889648 pbc="T T T"
C        0.00000000       0.01695441      20.00000124       0.00000000      -0.00040881      -0.01149952
C        1.23470008       0.72980899      20.00000124       0.00000000      -0.00034633       0.00272023
C        1.23470008       0.69589993      23.39090152       0.00000000       0.00034633      -0.00272023
C        2.46940015       1.40875426      23.39090152       0.00000000       0.00040881       0.01149952
4
Lattice="2.469400151009717 0.0 0.0 1.2347000755048585 2.1385622657781904 0.0 0.0 0.0 43.39090177305727" Properties=species:S:1:pos:R:3:forces:R:3 energy=-1016.8914337326646 pbc="T T T"
C        0.00000000       0.00847720      20.00000124       0.00000000       0.00002160      -0.01148795
C        1.23470008       0.72133179      20.00000124       0.00000000      -0.00036175       0.00271020
C        1.23470008       0.70437713      23.39090152       0.00000000       0.00036175      -0.00271020
C        2.46940015       1.41723147      23.39090152       0.00000000      -0.00002160       0.01148795
4
Lattice="2.469400151009717 0.0 0.0 1.2347000755048585 2.1385622657781904 0.0 0.0 0.0 43.39090177305727" Properties=species:S:1:pos:R:3:forces:R:3 energy=-1016.891436317746 pbc="T T T"
C        0.00000000       0.00000000      20.00000124      -0.00000000       0.00000000      -0.01157382
C        1.23470008       0.71285434      20.00000124       0.00000000       0.00000000       0.00266032
C        1.23470008       0.71285434      23.39090152       0.00000000       0.00000000      -0.00266032
C        2.46940015       1.42570892      23.39090152       0.00000000       0.00000000       0.01157382
4
Lattice="2.469400151009717 0.0 0.0 1.2347000755048585 2.1385622657781904 0.0 0.0 0.0 43.39090177305727" Properties=species:S:1:pos:R:3:forces:R:3 energy=-1016.89143482112 pbc="T T T"
C        0.00000000      -0.00847720      20.00000124       0.00000000      -0.00082712      -0.01152343
C        1.23470008       0.70437713      20.00000124       0.00000000       0.00117962       0.00263127
C        1.23470008       0.72133179      23.39090152       0.00000000      -0.00117962      -0.00263127
C        2.46940015       1.43418612      23.39090152       0.00000000       0.00082712       0.01152343
4
Lattice="2.469400151009717 0.0 0.0 1.2347000755048585 2.1385622657781904 0.0 0.0 0.0 43.39090177305727" Properties=species:S:1:pos:R:3:forces:R:3 energy=-1016.8914238005095 pbc="T T T"
C        0.00000000      -0.01695441      20.00000124       0.00000000      -0.00200135      -0.01148306
C        1.23470008       0.69589993      20.00000124       0.00000000       0.00283798       0.00258782
C        1.23470008       0.72980899      23.39090152       0.00000000      -0.00283798      -0.00258782
C        2.46940015       1.44266333      23.39090152       0.00000000       0.00200135       0.01148306
4
Lattice="2.444706096581899 0.0 0.0 1.2223530482909495 2.1385628862252375 0.0 0.0 0.0 43.57700107275889" Properties=species:S:1:pos:R:3:forces:R:3 energy=-1016.86158964741 pbc="T T T"
C        0.00000000       0.00000000      20.00000074       0.00000000      -0.09947290       0.00329255
C        1.22235305       0.71285430      20.00000074       0.00000000       0.09947290       0.00329255
C        0.00000000       0.00000000      23.57700082       0.00000000      -0.09947290      -0.00329255
C        1.22235305       0.71285430      23.57700082       0.00000000       0.09947290      -0.00329255
4
Lattice="2.457052859207204 0.0 0.0 1.228526429603602 2.1385622964381885 0.0 0.0 0.0 43.57699710109503" Properties=species:S:1:pos:R:3:forces:R:3 energy=-1016.8702206902013 pbc="T T T"
C        0.00000000       0.00000000      19.99999896       0.00000000      -0.03529019       0.00278245
C        1.22852643       0.71285443      19.99999896       0.00000000       0.03529019       0.00278245
C        0.00000000       0.00000000      23.57699863       0.00000000      -0.03529019      -0.00278245
C        1.22852643       0.71285443      23.57699863       0.00000000       0.03529019      -0.00278245
4
Lattice="2.469400151009717 0.0 0.0 1.2347000755048585 2.1385622657781904 0.0 0.0 0.0 43.57700317663782" Properties=species:S:1:pos:R:3:forces:R:3 energy=-1016.8727001914992 pbc="T T T"
C        0.00000000       0.00000000      20.00000124       0.00000000       0.00000000       0.00254693
C        1.23470008       0.71285434      20.00000124       0.00000000      -0.00000000       0.00254693
C        0.00000000       0.00000000      23.57700144       0.00000000       0.00000000      -0.00254693
C        1.23470008       0.71285434      23.57700144       0.00000000      -0.00000000      -0.00254693
4
Lattice="2.481746913635022 0.0 0.0 1.240873456817511 2.13856350517683 0.0 0.0 0.0 43.57699902001118" Properties=species:S:1:pos:R:3:forces:R:3 energy=-1016.869479316048 pbc="T T T"
C        0.00000000       0.00000000      19.99999931       0.00000000       0.03216270      -0.00242558
C        1.24087346       0.71285425      19.99999931       0.00000000      -0.03216270      -0.00242558
C        0.00000000       0.00000000      23.57699921       0.00000000       0.03216270       0.00242558
C        1.24087346       0.71285425      23.57699921       0.00000000      -0.03216270       0.00242558
4
Lattice="2.4940942054375355 0.0 0.0 1.2470471027187677 2.13856357054662 0.0 0.0 0.0 43.57700350856424" Properties=species:S:1:pos:R:3:forces:R:3 energy=-1016.8606587459681 pbc="T T T"
C        0.00000000       0.00000000      20.00000176       0.00000000       0.07590179      -0.00297965
C        1.24704710       0.71285452      20.00000176       0.00000000      -0.07590179      -0.00297965
C        0.00000000       0.00000000      23.57700199       0.00000000       0.07590179       0.00297965
C        1.24704710       0.71285452      23.57700199       0.00000000      -0.07590179       0.00297965
4
Lattice="2.481746913635022 0.0 0.0 1.240873456817511 2.13856350517683 0.0 0.0 0.0 43.39089778245151" Properties=species:S:1:pos:R:3:forces:R:3 energy=-1016.8883475535634 pbc="T T T"
C        0.00000000       0.00000000      19.99999931       0.00000000       0.03969809      -0.01198494
C        1.24087346       0.71285425      19.99999931       0.00000000      -0.03891725       0.00241812
C        1.24087346       0.71285425      23.39089921       0.00000000       0.03891725      -0.00241812
C        2.48174691       1.42570876      23.39089921       0.00000000      -0.03969809       0.01198494
4
Lattice="2.444706096581899 0.0 0.0 1.2223530482909495 2.1171765972923393 0.0 0.0 0.0 43.57700107275889" Properties=species:S:1:pos:R:3:forces:R:3 energy=-1016.8460444640922 pbc="T T T"
C        0.00000000       0.00000000      20.00000074       0.00000000       0.00000000      -0.00024271
C        1.22235305       0.70572578      20.00000074       0.00000000       0.00000000      -0.00024271
C        0.00000000       0.00000000      23.57700082       0.00000000       0.00000000       0.00024271
C        1.22235305       0.70572578      23.57700082       0.00000000       0.00000000       0.00024271
4
Lattice="2.457052859207204 0.0 0.0 1.228526429603602 2.127869202394919 0.0 0.0 0.0 43.57699710109503" Properties=species:S:1:pos:R:3:forces:R:3 energy=-1016.8664078310942 pbc="T T T"
C        0.00000000       0.00000000      19.99999896       0.00000000      -0.00000000      -0.00141796
C        1.22852643       0.70928998      19.99999896       0.00000000       0.00000000      -0.00141796
C        0.00000000       0.00000000      23.57699863       0.00000000      -0.00000000       0.00141796
C        1.22852643       0.70928998      23.57699863       0.00000000       0.00000000       0.00141796
4
Lattice="2.469400151009717 0.0 0.0 1.2347000755048585 2.1385622657781904 0.0 0.0 0.0 43.57700317663782" Properties=species:S:1:pos:R:3:forces:R:3 energy=-1016.8727001914992 pbc="T T T"
C        0.00000000       0.00000000      20.00000124       0.00000000       0.00000000       0.00254693
C        1.23470008       0.71285434      20.00000124       0.00000000      -0.00000000       0.00254693
C        0.00000000       0.00000000      23.57700144       0.00000000       0.00000000      -0.00254693
C        1.23470008       0.71285434      23.57700144       0.00000000      -0.00000000      -0.00254693
4
Lattice="2.481746913635022 0.0 0.0 1.240873456817511 2.14925487088077 0.0 0.0 0.0 43.57699902001118" Properties=species:S:1:pos:R:3:forces:R:3 energy=-1016.8653856354593 pbc="T T T"
C        0.00000000       0.00000000      19.99999931       0.00000000       0.00000000       0.00163676
C        1.24087346       0.71641854      19.99999931       0.00000000       0.00000000       0.00163676
C        0.00000000       0.00000000      23.57699921       0.00000000      -0.00000000      -0.00163676
C        1.24087346       0.71641854      23.57699921       0.00000000      -0.00000000      -0.00163676
4
Lattice="2.4940942054375355 0.0 0.0 1.2470471027187677 2.159947934264042 0.0 0.0 0.0 43.57700350856424" Properties=species:S:1:pos:R:3:forces:R:3 energy=-1016.844967301462 pbc="T T T"
C        0.00000000       0.00000000      20.00000176       0.00000000       0.00000000       0.00070731
C        1.24704710       0.71998289      20.00000176       0.00000000       0.00000000       0.00070731
C        0.00000000       0.00000000      23.57700199       0.00000000      -0.00000000      -0.00070731
C        1.24704710       0.71998289      23.57700199       0.00000000       0.00000000      -0.00070731
4
Lattice="2.469400151009717 0.0 0.0 1.2347000755048585 2.1385622657781904 0.0 0.0 0.0 43.57700317663782" Properties=species:S:1:pos:R:3:forces:R:3 energy=-1016.8725705292551 pbc="T T T"
C        0.00000000       0.00000000      20.01788612       0.00000000      -0.00000000      -0.00608503
C        1.23470008       0.71285434      20.01788612       0.00000000       0.00000000      -0.00608503
C        0.00000000       0.00000000      23.55911632       0.00000000      -0.00000000       0.00608503
C        1.23470008       0.71285434      23.55911632       0.00000000       0.00000000       0.00608503
4
Lattice="2.469400151009717 0.0 0.0 1.2347000755048585 2.1385622657781904 0.0 0.0 0.0 43.57700317663782" Properties=species:S:1:pos:R:3:forces:R:3 energy=-1016.8727147495896 pbc="T T T"
C        0.00000000       0.00000000      20.00894368       0.00000000      -0.00000000      -0.00163445
C        1.23470008       0.71285434      20.00894368      -0.00000000       0.00000000      -0.00163445
C        0.00000000       0.00000000      23.56805900       0.00000000      -0.00000000       0.00163445
C        1.23470008       0.71285434      23.56805900      -0.00000000      -0.00000000       0.00163445
4
Lattice="2.469400151009717 0.0 0.0 1.2347000755048585 2.1385622657781904 0.0 0.0 0.0 43.57700317663782" Properties=species:S:1:pos:R:3:forces:R:3 energy=-1016.8727001914992 pbc="T T T"
C        0.00000000       0.00000000      20.00000124       0.00000000      -0.00000000       0.00254693
C        1.23470008       0.71285434      20.00000124       0.00000000       0.00000000       0.00254693
C        0.00000000       0.00000000      23.57700144      -0.00000000      -0.00000000      -0.00254693
C        1.23470008       0.71285434      23.57700144      -0.00000000      -0.00000000      -0.00254693
4
Lattice="2.469400151009717 0.0 0.0 1.2347000755048585 2.1385622657781904 0.0 0.0 0.0 43.57700317663782" Properties=species:S:1:pos:R:3:forces:R:3 energy=-1016.8726157001524 pbc="T T T"
C        0.00000000       0.00000000      19.99105880       0.00000000       0.00000000       0.00149792
C        1.23470008       0.71285434      19.99105880       0.00000000      -0.00000000       0.00149792
C        0.00000000       0.00000000      23.58594388       0.00000000      -0.00000000      -0.00149792
C        1.23470008       0.71285434      23.58594388       0.00000000      -0.00000000      -0.00149792
4
Lattice="2.469400151009717 0.0 0.0 1.2347000755048585 2.1385622657781904 0.0 0.0 0.0 43.57700317663782" Properties=species:S:1:pos:R:3:forces:R:3 energy=-1016.8725208684796 pbc="T T T"
C        0.00000000       0.00000000      19.98211612       0.00000000      -0.00000000       0.00397493
C        1.23470008       0.71285434      19.98211612      -0.00000000       0.00000000       0.00397493
C        0.00000000       0.00000000      23.59488657       0.00000000      -0.00000000      -0.00397493
C        1.23470008       0.71285434      23.59488657      -0.00000000       0.00000000      -0.00397493
4
Lattice="2.4940942054375355 0.0 0.0 1.2470471027187677 2.13856357054662 0.0 0.0 0.0 43.3909041753313" Properties=species:S:1:pos:R:3:forces:R:3 energy=-1016.8795537866966 pbc="T T T"
C        0.00000000       0.00000000      20.00000176       0.00000000       0.08384136      -0.01243411
C        1.24704710       0.71285452      20.00000176       0.00000000      -0.08308417       0.00212399
C        1.24704710       0.71285452      23.39090191       0.00000000       0.08308417      -0.00212399
C        2.49409421       1.42570880      23.39090191       0.00000000      -0.08384136       0.01243411
4
Lattice="2.444706096581899 0.0 0.0 1.2223530482909495 2.1385628862252375 0.0 0.0 0.0 43.57700107275889" Properties=species:S:1:pos:R:3:forces:R:3 energy=-1016.8615266530564 pbc="T T T"
C        0.00000000       0.00000000      20.01788572       0.00000000      -0.09939808      -0.00495426
C        1.22235305       0.71285430      20.01788572       0.00000000       0.09939808      -0.00495426
C        0.00000000       0.00000000      23.55911584       0.00000000      -0.09939808       0.00495426
C        1.22235305       0.71285430      23.55911584       0.00000000       0.09939808       0.00495426
4
Lattice="2.457052859207204 0.0 0.0 1.228526429603602 2.1385622964381885 0.0 0.0 0.0 43.57699710109503" Properties=species:S:1:pos:R:3:forces:R:3 energy=-1016.8702450443899 pbc="T T T"
C        0.00000000       0.00000000      20.00894141       0.00000000      -0.03528993      -0.00138582
C        1.22852643       0.71285443      20.00894141       0.00000000       0.03528993      -0.00138582
C        0.00000000       0.00000000      23.56805619       0.00000000      -0.03528993       0.00138582
C        1.22852643       0.71285443      23.56805619       0.00000000       0.03528993       0.00138582
4
Lattice="2.469400151009717 0.0 0.0 1.2347000755048585 2.1385622657781904 0.0 0.0 0.0 43.57700317663782" Properties=species:S:1:pos:R:3:forces:R:3 energy=-1016.8727001914992 pbc="T T T"
C        0.00000000       0.00000000      20.00000124       0.00000000      -0.00000000       0.00254693
C        1.23470008       0.71285434      20.00000124       0.00000000       0.00000000       0.00254693
C        0.00000000       0.00000000      23.57700144      -0.00000000      -0.00000000      -0.00254693
C        1.23470008       0.71285434      23.57700144      -0.00000000      -0.00000000      -0.00254693
4
Lattice="2.481746913635022 0.0 0.0 1.240873456817511 2.13856350517683 0.0 0.0 0.0 43.57699902001118" Properties=species:S:1:pos:R:3:forces:R:3 energy=-1016.8695040784072 pbc="T T T"
C        0.00000000       0.00000000      19.99105683       0.00000000       0.03217376       0.00114234
C        1.24087346       0.71285425      19.99105683       0.00000000      -0.03217376       0.00114234
C        0.00000000       0.00000000      23.58594169       0.00000000       0.03217376      -0.00114234
C        1.24087346       0.71285425      23.58594169       0.00000000      -0.03217376      -0.00114234
4
Lattice="2.4940942054375355 0.0 0.0 1.2470471027187677 2.13856357054662 0.0 0.0 0.0 43.57700350856424" Properties=species:S:1:pos:R:3:forces:R:3 energy=-1016.8606338475518 pbc="T T T"
C        0.00000000       0.00000000      19.98211661       0.00000000       0.07601929       0.00326607
C        1.24704710       0.71285452      19.98211661       0.00000000      -0.07601929       0.00326607
C        0.00000000       0.00000000      23.59488689       0.00000000       0.07601929      -0.00326607
C        1.24704710       0.71285452      23.59488689       0.00000000      -0.07601929      -0.00326607
4
Lattice="2.469400151009717 0.0 0.0 1.2347000755048585 2.1385622657781904 0.0 0.0 0.0 43.57700317663782" Properties=species:S:1:pos:R:3:forces:R:3 energy=-1016.8727577435761 pbc="T T T"
C        0.00000000       0.01788512      20.00000124       0.00000000       0.00374044       0.00166350
C        1.23470008       0.73073946      20.00000124       0.00000000      -0.00110635       0.00154652
C        0.00000000      -0.01788512      23.57700144       0.00000000       0.00110635      -0.00154652
C        1.23470008       0.69496946      23.57700144       0.00000000      -0.00374044      -0.00166350
4
Lattice="2.469400151009717 0.0 0.0 1.2347000755048585 2.1385622657781904 0.0 0.0 0.0 43.57700317663782" Properties=species:S:1:pos:R:3:forces:R:3 energy=-1016.8727165183295 pbc="T T T"
C        0.00000000       0.00894244      20.00000124       0.00000000       0.00252842       0.00211807
C        1.23470008       0.72179702      20.00000124       0.00000000      -0.00094205       0.00211396
C        0.00000000      -0.00894244      23.57700144       0.00000000       0.00094205      -0.00211396
C        1.23470008       0.70391190      23.57700144       0.00000000      -0.00252842      -0.00211807
4
Lattice="2.469400151009717 0.0 0.0 1.2347000755048585 2.1385622657781904 0.0 0.0 0.0 43.57700317663782" Properties=species:S:1:pos:R:3:forces:R:3 energy=-1016.8727001914992 pbc="T T T"
C        0.00000000       0.00000000      20.00000124       0.00000000       0.00000000       0.00254693
C        1.23470008       0.71285434      20.00000124       0.00000000      -0.00000000       0.00254693
C        0.00000000       0.00000000      23.57700144       0.00000000       0.00000000      -0.00254693
C        1.23470008       0.71285434      23.57700144       0.00000000      -0.00000000      -0.00254693
4
Lattice="2.469400151009717 0.0 0.0 1.2347000755048585 2.1385622657781904 0.0 0.0 0.0 43.57700317663782" Properties=species:S:1:pos:R:3:forces:R:3 energy=-1016.8727165183295 pbc="T T T"
C        0.00000000      -0.00894244      20.00000124       0.00000000       0.00100710       0.00219521
C        1.23470008       0.70391190      20.00000124       0.00000000      -0.00259373       0.00221706
C        0.00000000       0.00894244      23.57700144       0.00000000       0.00259373      -0.00221706
C        1.23470008       0.72179702      23.57700144       0.00000000      -0.00100710      -0.00219521
4
Lattice="2.469400151009717 0.0 0.0 1.2347000755048585 2.1385622657781904 0.0 0.0 0.0 43.57700317663782" Properties=species:S:1:pos:R:3:forces:R:3 energy=-1016.8727577435761 pbc="T T T"
C        0.00000000      -0.01788512      20.00000124       0.00000000       0.00089577       0.00159845
C        1.23470008       0.69496946      20.00000124       0.00000000      -0.00353887       0.00170773
C        0.00000000       0.01788512      23.57700144       0.00000000       0.00353887      -0.00170773
C        1.23470008       0.73073946      23.57700144       0.00000000      -0.00089577      -0.00159845
4
Lattice="2.444706096581899 0.0 0.0 1.2223530482909495 2.1171765972923393 0.0 0.0 0.0 43.39090271056878" Properties=species:S:1:pos:R:3:forces:R:3 energy=-1016.8646101110191 pbc="T T T"
C        0.00000000       0.00000000      20.00000074      -0.00000000      -0.00000000      -0.00965552
C        1.22235305       0.70572578      20.00000074       0.00000000       0.00000000       0.00330901
C        1.22235305       0.70572578      23.39090099       0.00000000       0.00000000      -0.00330901
C        2.44470610       1.41145180      23.39090099       0.00000000       0.00000000       0.00965552
4
Lattice="2.457052859207204 0.0 0.0 1.228526429603602 2.127869202394919 0.0 0.0 0.0 43.39089746048581" Properties=species:S:1:pos:R:3:forces:R:3 energy=-1016.8850938883947 pbc="T T T"
C        0.00000000       0.00000000      19.99999896       0.00000000       0.00000000      -0.01033635
C        1.22852643       0.70928998      19.99999896       0.00000000       0.00000000       0.00298428
C        1.22852643       0.70928998      23.39089874       0.00000000       0.00000000      -0.00298428
C        2.45705286       1.41858021      23.39089874       0.00000000       0.00000000       0.01033635
4
Lattice="2.469400151009717 0.0 0.0 1.2347000755048585 2.1385622657781904 0.0 0.0 0.0 43.39090177305727" Properties=species:S:1:pos:R:3:forces:R:3 energy=-1016.891436317746 pbc="T T T"
C        0.00000000       0.00000000      20.00000124      -0.00000000      -0.00000000      -0.01157382
C        1.23470008       0.71285434      20.00000124       0.00000000       0.00000000       0.00266032
C        1.23470008       0.71285434      23.39090152       0.00000000       0.00000000      -0.00266032
C        2.46940015       1.42570892      23.39090152       0.00000000       0.00000000       0.01157382
4
Lattice="2.481746913635022 0.0 0.0 1.240873456817511 2.14925487088077 0.0 0.0 0.0 43.39089778245151" Properties=species:S:1:pos:R:3:forces:R:3 energy=-1016.884182715206 pbc="T T T"
C        0.00000000       0.00000000      19.99999931       0.00000000      -0.00000000      -0.01248451
C        1.24087346       0.71641854      19.99999931       0.00000000      -0.00000000       0.00239524
C        1.24087346       0.71641854      23.39089921       0.00000000       0.00000000      -0.00239524
C        2.48174691       1.43283733      23.39089921       0.00000000       0.00000000       0.01248451
4
Lattice="2.4940942054375355 0.0 0.0 1.2470471027187677 2.159947934264042 0.0 0.0 0.0 43.3909041753313" Properties=species:S:1:pos:R:3:forces:R:3 energy=-1016.8638434302786 pbc="T T T"
C        0.00000000       0.00000000      20.00000176       0.00000000      -0.00000000      -0.01344018
C        1.24704710       0.71998289      20.00000176       0.00000000       0.00000000       0.00196175
C        1.24704710       0.71998289      23.39090191       0.00000000      -0.00000000      -0.00196175
C        2.49409421       1.43996604      23.39090191       0.00000000       0.00000000       0.01344018
