4
Lattice="2.435399986195794 0.0 0.0 1.2546011736887357 2.1730319102829347 0.0 0.0 0.0 43.43000087383235" Properties=species:S:1:pos:R:3:forces:R:3 energy=-1016.8345130959516 free_energy=-1016.8345130959516 stress="-0.011117052404834961 0.007078077055572573 1.1936048997592873e-05 0.007078077055572573 0.013647494792324652 9.181576151994517e-07 1.1936048997592873e-05 9.181576151994517e-07 0.00010191549528713913" pbc="T T T"
C        0.00147579      -0.00287231      19.99997391       0.01708190       0.01138536       0.00254668
C        1.22854663       0.72721416      20.00026647      -0.01626994      -0.01142264       0.00516560
C        1.23145337       0.72147314      23.42973353       0.01626994       0.01142264      -0.00516560
C        2.45852421       1.45155961      23.43002609      -0.01708190      -0.01138536      -0.00254668
4
Lattice="2.435399986195794 0.0 0.0 1.2546011736887357 2.1730319102829347 0.0 0.0 0.0 43.43000087383235" Properties=species:S:1:pos:R:3:forces:R:3 energy=-1016.8157203700263 free_energy=-1016.8157203700263 stress="-0.010980246920170243 0.007017478652969409 -0.0 0.007017478652969409 0.013721865559155806 -0.0 -0.0 -0.0 -0.00023045756141506238" pbc="T T T"
C        0.00156782      -0.00266410      19.93961741       0.00026559      -0.00304316      -0.00796785
C        1.22843218       0.72700775      19.93961741      -0.00026559       0.00304316      -0.00796785
C        0.00156782      -0.00266410      23.49038259       0.00026559      -0.00304316       0.00796785
C        1.22843218       0.72700775      23.49038259      -0.00026559       0.00304316       0.00796785
4
Lattice="2.447700181226763 0.0 0.0 1.2546005479901334 2.173031505390402 0.0 0.0 0.0 43.430002035440346" Properties=species:S:1:pos:R:3:forces:R:3 energy=-1016.8487368944687 free_energy=-1016.8487368944687 stress="-0.005975369759718031 0.0057596027201461605 1.1936048997592873e-05 0.0057596027201461605 0.014480263749310553 4.590788075997259e-06 1.1936048997592873e-05 4.590788075997259e-06 9.732470721114188e-05" pbc="T T T"
C        0.00133797      -0.00214997      19.99997519      -0.00993294      -0.00569705      -0.00037384
C        1.23276811       0.72649604      20.00009790       0.01073513       0.00598681       0.00822547
C        1.23543189       0.72219126      23.42990210      -0.01073513      -0.00598681      -0.00822547
C        2.46686203       1.45083727      23.43002481       0.00993294       0.00569705       0.00037384
4
Lattice="2.447700181226763 0.0 0.0 1.2546005479901334 2.173031505390402 0.0 0.0 0.0 43.430002035440346" Properties=species:S:1:pos:R:3:forces:R:3 energy=-1016.8262894075765 free_energy=-1016.8262894075765 stress="-0.005732057991690177 0.006253571517123465 -0.0 0.006253571517123465 0.014593197135980085 -0.0 -0.0 -0.0 -0.0007583981901547472" pbc="T T T"
C        0.00172183      -0.00231844      19.98942287       0.01559297       0.01670754      -0.02469750
C        1.23237817       0.72666209      19.98942287      -0.01559297      -0.01670754      -0.02469750
C        0.00172183      -0.00231844      23.44057713       0.01559297       0.01670754       0.02469750
C        1.23237817       0.72666209      23.44057713      -0.01559297      -0.01670754       0.02469750
4
Lattice="2.4599998470805247 0.0 0.0 1.2545999220110675 2.173031024919193 0.0 0.0 0.0 43.4299984202874" Properties=species:S:1:pos:R:3:forces:R:3 energy=-1016.8562056029983 free_energy=-1016.8562056029983 stress="-0.0009466205012706346 0.004527435200548496 1.3772364227991774e-05 0.004527435200548496 0.01525427061892369 8.263418536795066e-06 1.3772364227991774e-05 8.263418536795066e-06 9.089760390474572e-05" pbc="T T T"
C        0.00095118      -0.00167287      19.99997065      -0.00585774      -0.00298171      -0.00066617
C        1.23725635       0.72602204      20.00010106       0.00682191       0.00351496       0.00809589
C        1.23914365       0.72266526      23.42989894      -0.00682191      -0.00351496      -0.00809589
C        2.47544882       1.45036017      23.43002935       0.00585774       0.00298171       0.00066617
4
Lattice="2.4599998470805247 0.0 0.0 1.2545999220110675 2.173031024919193 0.0 0.0 0.0 43.4299984202874" Properties=species:S:1:pos:R:3:forces:R:3 energy=-1016.8338031509466 free_energy=-1016.8338031509466 stress="-0.0006803547928627937 0.004983759535302624 -0.0 0.004983759535302624 0.01533965927713724 -0.0 -0.0 -0.0 -0.0007740068696131378" pbc="T T T"
C        0.00147738      -0.00168275      19.98938073       0.00419578       0.00877183      -0.02532717
C        1.23672262       0.72602640      19.98938073      -0.00419578      -0.00877183      -0.02532717
C        0.00147738      -0.00168275      23.44061927       0.00419578       0.00877183       0.02532717
C        1.23672262       0.72602640      23.44061927      -0.00419578      -0.00877183       0.02532717
4
Lattice="2.4723000421114945 0.0 0.0 1.2546007962700254 2.17303059431394 0.0 0.0 0.0 43.429999867157385" Properties=species:S:1:pos:R:3:forces:R:3 energy=-1016.857091741714 free_energy=-1016.857091741714 stress="0.003945323272512044 0.0033246487246372147 1.5608679458390678e-05 0.0033246487246372147 0.01599155118392885 1.1017891382393419e-05 1.5608679458390678e-05 1.1017891382393419e-05 8.447050059834955e-05" pbc="T T T"
C        0.00060704      -0.00122943      19.99996563      -0.00279402      -0.00090734      -0.00112331
C        1.24170249       0.72558092      20.00010346       0.00388699       0.00160745       0.00776653
C        1.24289751       0.72310638      23.42989654      -0.00388699      -0.00160745      -0.00776653
C        2.48399296       1.44991673      23.43003437       0.00279402       0.00090734       0.00112331
4
Lattice="2.4723000421114945 0.0 0.0 1.2546007962700254 2.17303059431394 0.0 0.0 0.0 43.429999867157385" Properties=species:S:1:pos:R:3:forces:R:3 energy=-1016.8352490278281 free_energy=-1016.8352490278281 stress="0.0042327066060694725 0.003755264646165757 -0.0 0.003755264646165757 0.01602735933092163 -0.0 -0.0 -0.0 -0.0006987179451667827" pbc="T T T"
C        0.00119182      -0.00114448      19.98353510       0.00025814       0.00667921      -0.02342558
C        1.24110818       0.72548813      19.98353510      -0.00025814      -0.00667921      -0.02342558
C        0.00119182      -0.00114448      23.44646490       0.00025814       0.00667921       0.02342558
C        1.24110818       0.72548813      23.44646490      -0.00025814      -0.00667921       0.02342558
4
Lattice="2.4846002371424643 0.0 0.0 1.2545988897450873 2.1730313674047994 0.0 0.0 0.0 43.4300046501732" Properties=species:S:1:pos:R:3:forces:R:3 energy=-1016.8515856542456 free_energy=-1016.8515856542456 stress="0.0087087249801668 0.002150325134797116 1.744499468878958e-05 0.002150325134797116 0.016683842025789236 1.1936048997592873e-05 1.744499468878958e-05 1.1936048997592873e-05 7.712523967675394e-05" pbc="T T T"
C        0.00029723      -0.00081475      19.99993579       0.00143905       0.00080810       0.00178177
C        1.24613906       0.72518352      20.00026605      -0.00024425      -0.00002931       0.00453517
C        1.24666094       0.72350378      23.42973395       0.00024425       0.00002931      -0.00453517
C        2.49250277       1.44950205      23.43006421      -0.00143905      -0.00080810      -0.00178177
4
Lattice="2.4846002371424643 0.0 0.0 1.2545988897450873 2.1730313674047994 0.0 0.0 0.0 43.4300046501732" Properties=species:S:1:pos:R:3:forces:R:3 energy=-1016.8324795892353 free_energy=-1016.8324795892353 stress="0.008885929399900294 0.0025745139530192625 -0.0 0.0025745139530192625 0.01661406204703408 -0.0 -0.0 -0.0 -7.345260921595614e-06" pbc="T T T"
C        0.00082765      -0.00042031      19.92764468       0.00746983      -0.01760794       0.00035790
C        1.24557235       0.72476396      19.92764468      -0.00746983       0.01760794       0.00035790
C        0.00082765      -0.00042031      23.50235532       0.00746983      -0.01760794      -0.00035790
C        1.24557235       0.72476396      23.50235532      -0.00746983       0.01760794      -0.00035790
