4
Lattice="2.435399986195794 0.0 0.0 1.2546011736887357 2.1730319102829347 0.0 0.0 0.0 43.43000087383235" Properties=species:S:1:pos:R:3:forces:R:3 energy=-1016.8345130959516 pbc="T T T"
C        0.00147578      -0.00287233      19.99997397       0.01708318       0.01138639       0.00254668
C        1.22854664       0.72721416      20.00026654      -0.01627123      -0.01142367       0.00516560
C        1.23145336       0.72147314      23.42973346       0.01627123       0.01142367      -0.00516560
C        2.45852422       1.45155963      23.43002603      -0.01708318      -0.01138639      -0.00254668
4
Lattice="2.435399986195794 0.0 0.0 1.2546011736887357 2.1730319102829347 0.0 0.0 0.0 43.43000087383235" Properties=species:S:1:pos:R:3:forces:R:3 energy=-1016.8157202339693 pbc="T T T"
C        0.00156779      -0.00266410      19.93962412       0.00026842      -0.00304239      -0.00797093
C        1.22843221       0.72700775      19.93962412      -0.00026842       0.00304239      -0.00797093
C        0.00156779      -0.00266410      23.49037588       0.00026842      -0.00304239       0.00797093
C        1.22843221       0.72700775      23.49037588      -0.00026842       0.00304239       0.00797093
4
Lattice="2.447700181226763 0.0 0.0 1.2546005479901334 2.173031505390402 0.0 0.0 0.0 43.430002035440346" Properties=species:S:1:pos:R:3:forces:R:3 energy=-1016.8487368944687 pbc="T T T"
C        0.00133798      -0.00214998      19.99997523      -0.00993371      -0.00569731      -0.00037358
C        1.23276810       0.72649602      20.00009792       0.01073564       0.00598707       0.00822599
C        1.23543190       0.72219128      23.42990208      -0.01073564      -0.00598707      -0.00822599
C        2.46686202       1.45083728      23.43002477       0.00993371       0.00569731       0.00037358
4
Lattice="2.447700181226763 0.0 0.0 1.2546005479901334 2.173031505390402 0.0 0.0 0.0 43.430002035440346" Properties=species:S:1:pos:R:3:forces:R:3 energy=-1016.8262894075765 pbc="T T T"
C        0.00172172      -0.00231839      19.98942287       0.01560454       0.01670266      -0.02469750
C        1.23237828       0.72666204      19.98942287      -0.01560454      -0.01670266      -0.02469750
C        0.00172172      -0.00231839      23.44057713       0.01560454       0.01670266       0.02469750
C        1.23237828       0.72666204      23.44057713      -0.01560454      -0.01670266       0.02469750
4
Lattice="2.4599998470805247 0.0 0.0 1.2545999220110675 2.173031024919193 0.0 0.0 0.0 43.4299984202874" Properties=species:S:1:pos:R:3:forces:R:3 energy=-1016.8562056029983 pbc="T T T"
C        0.00095118      -0.00167287      19.99997068      -0.00585749      -0.00298119      -0.00066617
C        1.23725636       0.72602204      20.00010109       0.00682165       0.00351444       0.00809563
C        1.23914364       0.72266526      23.42989891      -0.00682165      -0.00351444      -0.00809563
C        2.47544882       1.45036017      23.43002932       0.00585749       0.00298119       0.00066617
4
Lattice="2.4599998470805247 0.0 0.0 1.2545999220110675 2.173031024919193 0.0 0.0 0.0 43.4299984202874" Properties=species:S:1:pos:R:3:forces:R:3 energy=-1016.8338032870034 pbc="T T T"
C        0.00147742      -0.00168269      19.98938043       0.00419141       0.00876618      -0.02532691
C        1.23672258       0.72602634      19.98938043      -0.00419141      -0.00876618      -0.02532691
C        0.00147742      -0.00168269      23.44061957       0.00419141       0.00876618       0.02532691
C        1.23672258       0.72602634      23.44061957      -0.00419141      -0.00876618       0.02532691
4
Lattice="2.4723000421114945 0.0 0.0 1.2546007962700254 2.17303059431394 0.0 0.0 0.0 43.429999867157385" Properties=species:S:1:pos:R:3:forces:R:3 energy=-1016.857091741714 pbc="T T T"
C        0.00060706      -0.00122942      19.99996566      -0.00279659      -0.00090786      -0.00112331
C        1.24170250       0.72558092      20.00010348       0.00388982       0.00160771       0.00776756
C        1.24289750       0.72310638      23.42989652      -0.00388982      -0.00160771      -0.00776756
C        2.48399294       1.44991672      23.43003434       0.00279659       0.00090786       0.00112331
4
Lattice="2.4723000421114945 0.0 0.0 1.2546007962700254 2.17303059431394 0.0 0.0 0.0 43.429999867157385" Properties=species:S:1:pos:R:3:forces:R:3 energy=-1016.8352490278281 pbc="T T T"
C        0.00119187      -0.00114451      19.98353540       0.00025300       0.00668230      -0.02342558
C        1.24110813       0.72548816      19.98353540      -0.00025300      -0.00668230      -0.02342558
C        0.00119187      -0.00114451      23.44646460       0.00025300       0.00668230       0.02342558
C        1.24110813       0.72548816      23.44646460      -0.00025300      -0.00668230       0.02342558
4
Lattice="2.4846002371424643 0.0 0.0 1.2545988897450873 2.1730313674047994 0.0 0.0 0.0 43.4300046501732" Properties=species:S:1:pos:R:3:forces:R:3 energy=-1016.8515856542456 pbc="T T T"
C        0.00029720      -0.00081475      19.99993578       0.00143905       0.00080784       0.00178126
C        1.24613903       0.72518352      20.00026602      -0.00024425      -0.00002880       0.00453543
C        1.24666097       0.72350378      23.42973398       0.00024425       0.00002880      -0.00453543
C        2.49250280       1.44950205      23.43006422      -0.00143905      -0.00080784      -0.00178126
4
Lattice="2.4846002371424643 0.0 0.0 1.2545988897450873 2.1730313674047994 0.0 0.0 0.0 43.4300046501732" Properties=species:S:1:pos:R:3:forces:R:3 energy=-1016.8324795892353 pbc="T T T"
C        0.00082759      -0.00042052      19.92764662       0.00747600      -0.01758789       0.00035815
C        1.24557241       0.72476417      19.92764662      -0.00747600       0.01758789       0.00035815
C        0.00082759      -0.00042052      23.50235338       0.00747600      -0.01758789      -0.00035815
C        1.24557241       0.72476417      23.50235338      -0.00747600       0.01758789      -0.00035815
